22
Properties=species:S:1:pos:R:3 Unnamed=T conformer=T 0=T target_phi=-180 target_psi=-180 actual_phi=180.00000000490434 actual_psi=179.99999999999994 Energy=-13502.126274270904 pbc="F F F"
C       -2.80328272       0.99515135      -1.25060786
C       -2.19240941       0.01172233      -0.27709542
O       -2.88339201      -0.66288933       0.46868693
N       -0.83940839      -0.04400561      -0.28724262
C       -0.07063921      -0.98405524       0.49228005
C       -0.42348541      -2.44048544       0.17349707
C        1.40121125      -0.70589503       0.18836731
O        1.73908214       0.15599942      -0.60416720
N        2.28755712      -1.49398534       0.83145463
C        3.71319379      -1.36103217       0.61529974
H       -2.06322095       1.53868063      -1.83427341
H       -3.46411236       0.44875592      -1.91944800
H       -3.41219522       1.69770931      -0.68693794
H       -0.29775893       0.56652314      -0.87665730
H       -0.25325156      -0.80937326       1.55529632
H       -1.48163953      -2.60114813       0.34152852
H        0.14147452      -3.12518404       0.80489738
H       -0.19061519      -2.65753455      -0.86665450
H        1.94705301      -2.15707117       1.49975270
H        3.96035999      -1.55392262      -0.42631039
H        4.23626027      -2.07357472       1.24632169
H        4.04554722      -0.35413428       0.85639585
22
Properties=species:S:1:pos:R:3 Unnamed=T conformer=T 0=T target_phi=-170 target_psi=-180 actual_phi=190.00000001395202 actual_psi=179.99999999999997 Energy=-13502.151222319431 pbc="F F F"
C       -2.81510628       1.09676801      -1.11372755
C       -2.16274879       0.11684486      -0.16435803
O       -2.80086670      -0.46740818       0.69566972
N       -0.82981187      -0.05557467      -0.33312072
C       -0.06057613      -0.97721748       0.46537761
C       -0.43558112      -2.43433724       0.18390902
C        1.41265988      -0.71201564       0.16314387
O        1.75838835       0.13218774      -0.64479067
N        2.29047110      -1.49157928       0.82883262
C        3.71888017      -1.36519629       0.62654321
H       -2.11641724       1.53996350      -1.82015278
H       -3.60015615       0.57581416      -1.65675390
H       -3.28627456       1.87943537      -0.52402480
H       -0.30131075       0.52465882      -0.96301187
H       -0.24514482      -0.77588356       1.52270882
H       -1.49808910      -2.56768514       0.35064682
H        0.10857262      -3.11364622       0.83869173
H       -0.20125474      -2.68510027      -0.84840576
H        1.94078968      -2.14010038       1.50699716
H        3.97532322      -1.55917879      -0.41232758
H        4.23343849      -2.08025671       1.26163799
H        4.05465122      -0.35998763       0.87038855
22
Properties=species:S:1:pos:R:3 Unnamed=T conformer=T 0=T target_phi=-160 target_psi=-180 actual_phi=200.00000001008328 actual_psi=179.99999999999994 Energy=-13502.162786450644 pbc="F F F"
C       -2.78069999       1.22555058      -0.99304536
C       -2.11276799       0.23358271      -0.06826727
O       -2.69578343      -0.25571484       0.88432011
N       -0.82816266      -0.07494946      -0.37441825
C       -0.05440143      -0.97685706       0.44163938
C       -0.44650555      -2.43508610       0.19891857
C        1.41992482      -0.72003645       0.13887882
O        1.77006459       0.10572161      -0.68594390
N        2.29298889      -1.48783051       0.82468551
C        3.72303027      -1.36297431       0.63266801
H       -2.13321326       1.56451767      -1.79898756
H       -3.66860537       0.75804823      -1.41232778
H       -3.10592897       2.07789095      -0.40118961
H       -0.30758798       0.46907021      -1.04224523
H       -0.23924383      -0.74624499       1.49255399
H       -1.51172047      -2.54470298       0.36953168
H        0.08515867      -3.10699771       0.87162960
H       -0.21786791      -2.71810587      -0.82678548
H        1.93880664      -2.11778261       1.51784958
H        3.98678735      -1.56139403      -0.40338906
H        4.23224357      -2.07666790       1.27358582
H        4.05915981      -0.35720137       0.87456898
22
Properties=species:S:1:pos:R:3 Unnamed=T conformer=T 0=T target_phi=-150 target_psi=-180 actual_phi=210.0000000039948 actual_psi=179.99999999999994 Energy=-13502.161768911388 pbc="F F F"
C       -2.70230273       1.36856541      -0.90283639
C       -2.04177370       0.36505106       0.01328763
O       -2.56727375      -0.01256246       1.04569880
N       -0.83237870      -0.09485291      -0.40133200
C       -0.05250661      -0.98182539       0.42622262
C       -0.45515946      -2.44072391       0.21258068
C        1.42308029      -0.72836388       0.12135930
O        1.77446608       0.08145808      -0.71867811
N        2.29543647      -1.48581569       0.81976130
C        3.72589131      -1.35681946       0.63231431
H       -2.11274635       1.59174901      -1.78972680
H       -3.67130585       0.97403847      -1.20022429
H       -2.87918072       2.28222622      -0.33977396
H       -0.31778199       0.40080682      -1.11081576
H       -0.23847652      -0.72753818       1.47105321
H       -1.52180155      -2.53589670       0.38776430
H        0.06934727      -3.10524220       0.89829878
H       -0.23415766      -2.74778188      -0.80834300
H        1.94113002      -2.09774484       1.52868499
H        3.99298705      -1.55957752      -0.40201871
H        4.23511744      -2.06561245       1.27866763
H        4.05861549      -0.34866248       0.86973419
22
Properties=species:S:1:pos:R:3 Unnamed=T conformer=T 0=T target_phi=-140 target_psi=-180 actual_phi=220.000000000733 actual_psi=180.00000000000003 Energy=-13502.150760789824 pbc="F F F"
C       -2.58735540       1.51760442      -0.84602138
C       -1.95463736       0.49959479       0.07309247
O       -2.42101842       0.23783341       1.16675921
N       -0.84398272      -0.11694426      -0.41870279
C       -0.05349312      -0.98930303       0.41578092
C       -0.45783784      -2.44997260       0.22748858
C        1.42238465      -0.73524187       0.10639310
O        1.77161970       0.06003398      -0.74831111
N        2.29657572      -1.48277764       0.81381846
C        3.72692404      -1.34880889       0.62796608
H       -2.06481699       1.61964293      -1.79506522
H       -3.61761420       1.22052865      -1.02871814
H       -2.60953694       2.47735907      -0.33436171
H       -0.33924241       0.32022505      -1.17309429
H       -0.23936304      -0.71591340       1.45529276
H       -1.52437696      -2.53840923       0.41038469
H        0.06603850      -3.10551850       0.92212870
H       -0.24531776      -2.77720880      -0.78890502
H        1.94436088      -2.07770046       1.53803442
H        3.99517072      -1.55659598      -0.40499368
H        4.23815916      -2.05235436       1.27852854
H        4.05670350      -0.33816876       0.85982574
22
Properties=species:S:1:pos:R:3 Unnamed=T conformer=T 0=T target_phi=-130 target_psi=-180 actual_phi=230.00000000272897 actual_psi=179.99999999999994 Energy=-13502.129597088802 pbc="F F F"
C       -2.44620234       1.65845845      -0.82718407
C       -1.84969341       0.63635682       0.11225673
O       -2.24456952       0.50025332       1.25482361
N       -0.85905841      -0.13563035      -0.42608783
C       -0.05686263      -0.99643845       0.41073069
C       -0.45590990      -2.45991624       0.23690976
C        1.41939239      -0.74158314       0.09587742
O        1.76549799       0.03777363      -0.77430641
N        2.29623660      -1.48198183       0.80832591
C        3.72557353      -1.34240452       0.62115518
H       -2.00467295       1.62881740      -1.82149243
H       -3.51654452       1.47758700      -0.89921940
H       -2.30832734       2.64739232      -0.39455558
H       -0.37428840       0.22659175      -1.23253312
H       -0.24367256      -0.71069967       1.44615009
H       -1.52172987      -2.55206274       0.42438938
H        0.07226258      -3.10530883       0.93736086
H       -0.24647628      -2.79816854      -0.77640075
H        1.94791915      -2.05001772       1.55542908
H        3.99232772      -1.55437892      -0.41115226
H        4.23991294      -2.04029123       1.27498636
H        4.05169379      -0.32938468       0.84731062
22
Properties=species:S:1:pos:R:3 Unnamed=T conformer=T 0=T target_phi=-120 target_psi=-180 actual_phi=239.99999999954377 actual_psi=179.99999999999997 Energy=-13502.103418451461 pbc="F F F"
C       -2.30249135       1.77327724      -0.84963664
C       -1.71476214       0.78107611       0.12718575
O       -2.00108761       0.78929516       1.30844879
N       -0.86741471      -0.14233072      -0.42527428
C       -0.05758259      -0.99595057       0.41216881
C       -0.45434775      -2.45960992       0.23867014
C        1.41974078      -0.74780248       0.09083573
O        1.76448314       0.01684608      -0.79197299
N        2.29731286      -1.48569356       0.80666986
C        3.72679837      -1.34242957       0.62134467
H       -1.97374029       1.60476647      -1.87313763
H       -3.38703576       1.70449540      -0.80072247
H       -2.02318806       2.77692751      -0.53598326
H       -0.41811270       0.12573253      -1.28768539
H       -0.24376723      -0.70220024       1.44490492
H       -1.51968644      -2.55649602       0.42436231
H        0.07371325      -3.10633003       0.93743072
H       -0.24348046      -2.79568521      -0.77501336
H        1.95095091      -2.04878506       1.55839624
H        3.99466633      -1.55437361      -0.41065494
H        4.24271462      -2.03918194       1.27545017
H        4.05112507      -0.32849574       0.84719624
22
Properties=species:S:1:pos:R:3 Unnamed=T conformer=T 0=T target_phi=-110 target_psi=-180 actual_phi=249.99999999998187 actual_psi=180.00000000000006 Energy=-13502.076249016034 pbc="F F F"
C       -2.14936195       1.86767737      -0.90013393
C       -1.56183779       0.90824468       0.10888843
O       -1.71928085       1.05033434       1.30484693
N       -0.87349654      -0.14976392      -0.42892670
C       -0.05859942      -0.99617140       0.41115497
C       -0.45472381      -2.46029242       0.24044372
C        1.41883068      -0.75306813       0.08592983
O        1.76378831       0.00012659      -0.80586107
N        2.29634388      -1.48745201       0.80646455
C        3.72558343      -1.34173660       0.62110317
H       -1.94725640       1.57374516      -1.92801229
H       -3.22449027       1.91990348      -0.74228477
H       -1.74300061       2.85990215      -0.71572707
H       -0.47249774       0.01832777      -1.33951316
H       -0.24350917      -0.69453422       1.44099915
H       -1.51992560      -2.55870334       0.42629684
H        0.07561755      -3.10714359       0.93742997
H       -0.24439648      -2.79649293      -0.77365747
H        1.95211015      -2.03899299       1.56756033
H        3.99261009      -1.55363977      -0.41106285
H        4.24304135      -2.03729187       1.27538383
H        4.04876969      -0.32715465       0.84569329
22
Properties=species:S:1:pos:R:3 Unnamed=T conformer=T 0=T target_phi=-100 target_psi=-180 actual_phi=259.9999999999964 actual_psi=179.99999999999994 Energy=-13502.05482807327 pbc="F F F"
C       -1.94914974       1.95115292      -0.97613466
C       -1.41535931       0.99235454       0.06172133
O       -1.47109366       1.23382973       1.25050266
N       -0.89577220      -0.17815639      -0.43410942
C       -0.07110440      -1.01025264       0.41123637
C       -0.45836845      -2.47774020       0.25362034
C        1.40256102      -0.76113863       0.07497951
O        1.73709767      -0.01963544      -0.82987220
N        2.28905783      -1.48260941       0.79964917
C        3.71525531      -1.31883150       0.60773960
H       -1.86008790       1.56920883      -1.99055220
H       -2.99437761       2.15645021      -0.75648923
H       -1.40594075       2.88989589      -0.89111435
H       -0.56514789      -0.11747135      -1.38561894
H       -0.25232393      -0.69656769       1.43707547
H       -1.51869821      -2.58639619       0.46114252
H        0.09410727      -3.11845162       0.93862162
H       -0.26606077      -2.81537298      -0.76376750
H        1.95865113      -1.98917818       1.59773629
H        3.97503016      -1.52486745      -0.42697902
H        4.24385320      -2.01195518       1.25547890
H        4.03190811      -0.30217298       0.83293300
22
Properties=species:S:1:pos:R:3 Unnamed=T conformer=T 0=T target_phi=-90 target_psi=-180 actual_phi=269.99999999999375 actual_psi=180.0 Energy=-13502.047363341106 pbc="F F F"
C       -1.72883344       1.99648507      -1.08937962
C       -1.27067538       1.04758889      -0.00671695
O       -1.22951425       1.37181733       1.16225311
N       -0.92241898      -0.21109742      -0.43655955
C       -0.09109270      -1.03306427       0.41248861
C       -0.46938935      -2.50285128       0.26893877
C        1.37883631      -0.76770349       0.06694588
O        1.69498652      -0.01201465      -0.83191443
N        2.28212628      -1.47238106       0.78700786
C        3.70287790      -1.26869636       0.59378520
H       -1.85598684       1.50790602      -2.05290062
H       -2.66585511       2.45677043      -0.78697881
H       -0.98764926       2.78781758      -1.18402781
H       -0.67010091      -0.25519380      -1.41314977
H       -0.26635039      -0.70891263       1.43602246
H       -1.52909679      -2.61813465       0.47617501
H        0.08742601      -3.13422606       0.95921600
H       -0.27466578      -2.85044615      -0.74458414
H        1.96422283      -1.99578213       1.57931660
H        3.96299848      -1.44269920      -0.44662099
H        4.25066804      -1.96450689       1.22227256
H        3.99534330      -0.24995767       0.84162152
22
Properties=species:S:1:pos:R:3 Unnamed=T conformer=T 0=T target_phi=-80 target_psi=-180 actual_phi=279.99999999998454 actual_psi=179.99999999999997 Energy=-13502.044999129523 pbc="F F F"
C       -1.57281222       2.00380859      -1.23143764
C       -1.09580040       1.10317579      -0.11799706
O       -0.88770872       1.51699447       1.00356264
N       -0.92639737      -0.22104152      -0.45183568
C       -0.09247840      -1.03560321       0.40054729
C       -0.47001301      -2.50616119       0.26810911
C        1.38002611      -0.77361700       0.05628217
O        1.69998818      -0.02883773      -0.84867179
N        2.27933346      -1.47684934       0.78494201
C        3.70043061      -1.26583084       0.59875638
H       -1.86895925       1.45599968      -2.12301783
H       -2.40900226       2.59859827      -0.87304616
H       -0.76538665       2.68809891      -1.48338048
H       -0.79553696      -0.38694647      -1.43859603
H       -0.26525434      -0.70102185       1.42090950
H       -1.52902564      -2.62572533       0.47696522
H        0.09021014      -3.13032848       0.96145609
H       -0.27257255      -2.86396534      -0.74160903
H        1.96041378      -1.94809398       1.60941977
H        3.95931484      -1.42869241      -0.44336088
H        4.24924815      -1.96769894       1.21974579
H        3.99219069      -0.24951549       0.85764143
22
Properties=species:S:1:pos:R:3 Unnamed=T conformer=T 0=T target_phi=-70 target_psi=-180 actual_phi=290.0000000006146 actual_psi=180.00000000000003 Energy=-13502.047208856837 pbc="F F F"
C       -1.32960701       1.96231971      -1.39194061
C       -0.99473573       1.09985257      -0.20097078
O       -0.74296445       1.55470343       0.89444164
N       -0.98226364      -0.26115016      -0.43904339
C       -0.12125604      -1.06202313       0.40127788
C       -0.46821752      -2.53865828       0.26634609
C        1.34417630      -0.76650774       0.04579153
O        1.64452159      -0.01932309      -0.86496363
N        2.26344949      -1.45476990       0.76338773
C        3.67549953      -1.18271632       0.58371568
H       -2.04692885       1.48611837      -2.05901200
H       -1.71408390       2.91838718      -1.05199968
H       -0.40642171       2.13270156      -1.94697652
H       -0.93493308      -0.50628578      -1.41674053
H       -0.28564815      -0.73342398       1.42519008
H       -1.52399748      -2.67946787       0.47884321
H        0.10877797      -3.15213616       0.95550748
H       -0.26757435      -2.89157130      -0.74466895
H        1.95971887      -1.91201088       1.60178653
H        3.91661486      -1.24102290      -0.47282641
H        4.25469427      -1.92280661       1.12809539
H        3.94305292      -0.18590813       0.93120367
22
Properties=species:S:1:pos:R:3 Unnamed=T conformer=T 0=T target_phi=-60 target_psi=-180 actual_phi=300.0000000032015 actual_psi=180.0 Energy=-13502.008579175765 pbc="F F F"
C       -1.19171282       1.88394593      -1.58799769
C       -0.85460500       1.10333953      -0.34341823
O       -0.49062717       1.62566631       0.68829670
N       -0.99979619      -0.27058794      -0.43827863
C       -0.12525396      -1.06121068       0.39943431
C       -0.46321116      -2.53933165       0.26827029
C        1.33942035      -0.76336936       0.04024162
O        1.64237447      -0.05031907      -0.89541566
N        2.25711366      -1.44986275       0.76377440
C        3.66963140      -1.18538145       0.57346745
H       -1.99818802       1.42548793      -2.15894495
H       -1.46013007       2.89864316      -1.31331654
H       -0.30016394       1.91389338      -2.21402913
H       -1.05312569      -0.60571878      -1.38828029
H       -0.28010923      -0.73081426       1.42515584
H       -1.51658014      -2.69001643       0.48777198
H        0.12433134      -3.14644363       0.95352145
H       -0.26447406      -2.89054475      -0.74382037
H        1.95606629      -1.85453843       1.63024378
H        3.90216694      -1.25594881      -0.48415226
H        4.24723023      -1.92409093       1.12121609
H        3.94514663      -0.18677956       0.90995166
22
Properties=species:S:1:pos:R:3 Unnamed=T conformer=T 0=T target_phi=-50 target_psi=-180 actual_phi=310.00000000545793 actual_psi=180.00000000000006 Energy=-13501.936310772711 pbc="F F F"
C       -1.08364001       1.75854256      -1.80101818
C       -0.74830083       1.09415592      -0.49066873
O       -0.30961390       1.69212423       0.46748675
N       -1.01523677      -0.26556980      -0.42089649
C       -0.12273614      -1.05366584       0.40239391
C       -0.45549845      -2.53197413       0.26419316
C        1.34197968      -0.75359734       0.04107272
O        1.64979210      -0.06154782      -0.90750062
N        2.25671655      -1.44795681       0.76303587
C        3.67088556      -1.19846648       0.56302354
H       -1.96107462       1.31812814      -2.27324256
H       -1.24486776       2.81772102      -1.63259156
H       -0.23388176       1.63436556      -2.47110899
H       -1.18597812      -0.68051109      -1.32340618
H       -0.26532609      -0.73424928       1.43483833
H       -1.50512096      -2.69257363       0.49733895
H        0.14497793      -3.14049279       0.93660530
H       -0.26767685      -2.87385916      -0.75319728
H        1.95819398      -1.83406870       1.63908885
H        3.89812072      -1.28086990      -0.49499536
H        4.24320846      -1.93826195       1.11469226
H        3.95770288      -0.19969854       0.88983118
22
Properties=species:S:1:pos:R:3 Unnamed=T conformer=T 0=T target_phi=-40 target_psi=-180 actual_phi=319.9999999957776 actual_psi=180.0 Energy=-13501.82255093538 pbc="F F F"
C       -1.02547933       1.58604467      -2.01715002
C       -0.68134602       1.07672544      -0.64067841
O       -0.19400901       1.76704342       0.22588868
N       -1.02515801      -0.24663076      -0.39086445
C       -0.11056481      -1.04058472       0.40666595
C       -0.44595996      -2.51671104       0.24893475
C        1.35573265      -0.74417143       0.04569464
O        1.67510018      -0.06978539      -0.91046967
N        2.26258211      -1.45983739       0.76170120
C        3.67914520      -1.22515816       0.55697954
H       -1.95915396       1.16438675      -2.38823518
H       -1.09330357       2.66766646      -1.98918135
H       -0.22573711       1.29964991      -2.69881825
H       -1.32384306      -0.72894770      -1.22284335
H       -0.23877278      -0.74323856       1.44927708
H       -1.49146668      -2.68263882       0.49915888
H        0.16618796      -3.13539875       0.90086558
H       -0.27606589      -2.84104112      -0.77747853
H        1.96583003      -1.81985922       1.64971483
H        3.90276926      -1.31539378      -0.50114213
H        4.24520953      -1.96810179       1.11103352
H        3.97727288      -0.22777458       0.87868944
22
Properties=species:S:1:pos:R:3 Unnamed=T conformer=T 0=T target_phi=-30 target_psi=-180 actual_phi=330.0000000069954 actual_psi=180.00000000000003 Energy=-13501.676453563032 pbc="F F F"
C       -1.01364976       1.36812083      -2.21965848
C       -0.65093057       1.05222779      -0.78928059
O       -0.13235283       1.84790654      -0.04175064
N       -1.02962352      -0.21587734      -0.35339529
C       -0.09928924      -1.02272508       0.42010604
C       -0.43622972      -2.49570751       0.22536114
C        1.36935952      -0.73214599       0.06443621
O        1.69965567      -0.07165299      -0.89660489
N        2.26742075      -1.47289986       0.77269720
C        3.68522009      -1.26497936       0.54434281
H       -1.96806010       0.92777495      -2.50811237
H       -1.04929788       2.44384267      -2.34834871
H       -0.23882177       0.95912925      -2.86717898
H       -1.44921114      -0.75001351      -1.09638039
H       -0.22141623      -0.75937904       1.47364064
H       -1.47409138      -2.67332241       0.49892730
H        0.19434966      -3.13053445       0.84248144
H       -0.29304290      -2.78767558      -0.81475099
H        1.98119716      -1.79156635       1.68050946
H        3.88874566      -1.37236122      -0.51623795
H        4.24784259      -2.01201072       1.09686407
H        4.00579461      -0.26909577       0.84963393
22
Properties=species:S:1:pos:R:3 Unnamed=T conformer=T 0=T target_phi=-20 target_psi=-180 actual_phi=339.99999999612476 actual_psi=179.99999999999997 Energy=-13501.517977363594 pbc="F F F"
C       -1.05625511       1.11659543      -2.38864682
C       -0.64971696       1.02017258      -0.93703974
O       -0.11938511       1.92204006      -0.33679182
N       -1.02530065      -0.17611774      -0.31402406
C       -0.08379626      -1.00334801       0.43249687
C       -0.43008804      -2.47121010       0.20639787
C        1.38432518      -0.72801608       0.07480818
O        1.71656450      -0.06188381      -0.88059825
N        2.27580024      -1.49495589       0.76578124
C        3.69424496      -1.29667956       0.53599343
H       -2.04536555       0.69411553      -2.56533922
H       -1.04149837       2.15531759      -2.69603944
H       -0.33543920       0.55646480      -2.98340568
H       -1.54761898      -0.74895666      -0.95660648
H       -0.19511010      -0.77593471       1.49609269
H       -1.47150188      -2.64412151       0.46815759
H        0.18890398      -3.12104966       0.81954913
H       -0.27915390      -2.74626517      -0.83701887
H        1.98835260      -1.83377962       1.66569055
H        3.89616438      -1.40626781      -0.52453778
H        4.25277767      -2.04598270       1.08946934
H        4.02045911      -0.30221881       0.83922288
22
Properties=species:S:1:pos:R:3 Unnamed=T conformer=T 0=T target_phi=-10 target_psi=-180 actual_phi=350.0000000140317 actual_psi=180.00000000000009 Energy=-13501.357029129143 pbc="F F F"
C       -1.10939534       0.84461462      -2.50906569
C       -0.67747854       0.95941554      -1.06554511
O       -0.15779666       1.94360887      -0.60589561
N       -1.03920039      -0.14998706      -0.27635935
C       -0.08486029      -0.99152798       0.44601233
C       -0.43309664      -2.45659112       0.19918711
C        1.37922499      -0.71680271       0.08440009
O        1.70394149      -0.04378124      -0.86809661
N        2.27286323      -1.50055238       0.75682167
C        3.68976539      -1.31888582       0.50179421
H       -2.12784927       0.46544935      -2.59585422
H       -1.03873421       1.81540535      -2.98390434
H       -0.44184369       0.14418775      -3.01087277
H       -1.63601595      -0.74924531      -0.82389581
H       -0.18693845      -0.78643251       1.51557508
H       -1.47426170      -2.63091574       0.46103004
H        0.18587416      -3.11393106       0.80377434
H       -0.28597639      -2.71667107      -0.84855420
H        1.99999690      -1.81882213       1.66914439
H        3.86818106      -1.41627101      -0.56438872
H        4.24634835      -2.08608166       1.03300703
H        4.03959059      -0.33457117       0.81334506
22
Properties=species:S:1:pos:R:3 Unnamed=T conformer=T 0=T target_phi=0 target_psi=-180 actual_phi=1.2855576839469496e-08 actual_psi=180.0 Energy=-13501.202474372212 pbc="F F F"
C       -1.20524057       0.55840941      -2.58825677
C       -0.71939062       0.88031838      -1.19214229
O       -0.21357849       1.92916326      -0.89424729
N       -1.04294205      -0.12382487      -0.24590135
C       -0.08313677      -0.98305014       0.45534033
C       -0.45070933      -2.44197078       0.19505623
C        1.37721750      -0.71853467       0.08549888
O        1.69690416      -0.02234819      -0.85097606
N        2.27359103      -1.51771450       0.73741612
C        3.68918818      -1.32809483       0.47891989
H       -2.25338586       0.25729560      -2.57751228
H       -1.08195463       1.42639180      -3.22399991
H       -0.61972350      -0.27395597      -2.98008480
H       -1.71483130      -0.73497311      -0.68250502
H       -0.17325713      -0.79255421       1.52888323
H       -1.47802104      -2.61508894       0.50738645
H        0.19282381      -3.11688671       0.75229913
H       -0.36270773      -2.67921982      -0.86508795
H        2.00601179      -1.84984270       1.64640411
H        3.86228751      -1.40175001      -0.59009736
H        4.25084449      -2.10486549       0.99091344
H        4.03803642      -0.34931082       0.80909337
22
Properties=species:S:1:pos:R:3 Unnamed=T conformer=T 0=T target_phi=10 target_psi=-180 actual_phi=9.999999995030516 actual_psi=180.0 Energy=-13501.07006101101 pbc="F F F"
C       -1.40416555       0.30159213      -2.62983831
C       -0.78054969       0.76932371      -1.33146977
O       -0.24349162       1.83618106      -1.21311159
N       -1.03238472      -0.11323329      -0.24894812
C       -0.06866995      -0.97775807       0.44495648
C       -0.44799457      -2.43576904       0.19225185
C        1.39336493      -0.72223913       0.08363753
O        1.72724758      -0.00591155      -0.83032783
N        2.28227000      -1.53309470       0.73580489
C        3.69995646      -1.34585946       0.48723523
H       -2.46633930       0.09478404      -2.49363180
H       -1.27874044       1.06788458      -3.38504402
H       -0.92264781      -0.62264011      -2.95124059
H       -1.78649893      -0.71667674      -0.53904108
H       -0.16168620      -0.78609673       1.51790668
H       -1.47441742      -2.59804460       0.51296229
H        0.19100001      -3.11561946       0.74860257
H       -0.37274132      -2.67799274      -0.86775576
H        2.00825438      -1.87393866       1.63948628
H        3.87968742      -1.41920108      -0.58077265
H        4.25890841      -2.12283322       1.00201568
H        4.04886850      -0.36737738       0.81868765
22
Properties=species:S:1:pos:R:3 Unnamed=T conformer=T 0=T target_phi=20 target_psi=-180 actual_phi=20.000000006416535 actual_psi=180.00000000000003 Energy=-13501.484435696295 pbc="F F F"
C       -1.53418032       0.86664972      -2.28419363
C       -0.90651282      -0.46406877      -1.95118793
O       -0.25545006      -1.10328763      -2.74129701
N       -1.21944915      -0.96035790      -0.67768285
C       -0.17827793      -1.40903506       0.25135895
C       -0.17845319      -2.93932520       0.30476698
C        1.21681632      -0.84945638      -0.07537248
O        1.39981868       0.02822340      -0.89030159
N        2.19736779      -1.25387048       0.77501832
C        3.55598353      -0.79605519       0.55813103
H       -2.54257442       0.95266124      -1.88024491
H       -0.92014225       1.65439347      -1.84842440
H       -1.55741629       0.98997446      -3.36085131
H       -1.84350653      -0.32415488      -0.20756875
H       -0.43644830      -1.02229680       1.23857398
H       -1.18505571      -3.28078648       0.52707472
H        0.48707086      -3.33382326       1.07131577
H        0.11563343      -3.33983204      -0.66150847
H        2.04148901      -2.06643960       1.33822944
H        3.95604278      -1.15695592      -0.38876565
H        4.18585287      -1.14558670       1.37123586
H        3.56790938       0.28931691       0.53305412
22
Properties=species:S:1:pos:R:3 Unnamed=T conformer=T 0=T target_phi=30 target_psi=-180 actual_phi=29.999999993826854 actual_psi=180.0 Energy=-13501.656492299267 pbc="F F F"
C       -1.45932618       0.65988666      -2.50330571
C       -0.87305365      -0.61762766      -1.96039804
O       -0.20557458      -1.37490734      -2.62649724
N       -1.21981908      -0.92215068      -0.64402463
C       -0.18636429      -1.39985528       0.27183257
C       -0.19281505      -2.93095621       0.28425384
C        1.21051781      -0.84206671      -0.06197253
O        1.39293335       0.03785700      -0.87584831
N        2.19785544      -1.26463825       0.76885215
C        3.55831841      -0.81826619       0.54160052
H       -2.45092266       0.86160761      -2.09989912
H       -0.80075770       1.48245643      -2.22717821
H       -1.50669226       0.59564247      -3.58455443
H       -1.75351432      -0.17343662      -0.23204554
H       -0.43872140      -1.03139999       1.26709370
H       -1.19909143      -3.27223912       0.50948351
H        0.47849012      -3.34284044       1.03761740
H        0.08982854      -3.30804540      -0.69418548
H        2.03788370      -2.07364018       1.33608587
H        3.94422553      -1.18156576      -0.41010550
H        4.19285513      -1.17409628       1.34831133
H        3.57850979       0.26686779       0.51643072
22
Properties=species:S:1:pos:R:3 Unnamed=T conformer=T 0=T target_phi=40 target_psi=-180 actual_phi=39.99999999596788 actual_psi=179.99999999999994 Energy=-13501.804560205299 pbc="F F F"
C       -1.43028325       0.42861255      -2.68316000
C       -0.86465408      -0.77360069      -1.97459828
O       -0.20034027      -1.61688106      -2.53570188
N       -1.20485670      -0.89238446      -0.63267431
C       -0.19265168      -1.40525131       0.28092508
C       -0.21345417      -2.93452928       0.28391714
C        1.20337264      -0.84198186      -0.05038880
O        1.37421072       0.04023849      -0.86566492
N        2.20007403      -1.27602515       0.76033515
C        3.55984540      -0.83247459       0.52348082
H       -2.38968407       0.73866717      -2.27131855
H       -0.72342992       1.24986532      -2.57249480
H       -1.53605702       0.20000648      -3.73813667
H       -1.64240532      -0.05499596      -0.28376503
H       -0.44887074      -1.03975240       1.27651405
H       -1.22673550      -3.26618501       0.49088845
H        0.43840639      -3.34909882       1.05334459
H        0.08346822      -3.31159663      -0.68922662
H        2.04268211      -2.08581835       1.32752600
H        3.93724854      -1.19466436      -0.43179556
H        4.19901564      -1.19166493       1.32482206
H        3.58349273       0.25259088       0.49981549
22
Properties=species:S:1:pos:R:3 Unnamed=T conformer=T 0=T target_phi=50 target_psi=-180 actual_phi=50.000000000939 actual_psi=180.0 Energy=-13501.89950581768 pbc="F F F"
C       -1.45550675       0.19488727      -2.82253814
C       -0.89371736      -0.93202473      -1.99676782
O       -0.25132096      -1.83830118      -2.48196977
N       -1.18145151      -0.87615469      -0.64287195
C       -0.19450485      -1.41866055       0.27640186
C       -0.22992540      -2.94481135       0.30386020
C        1.19995310      -0.84705649      -0.04321728
O        1.36233221       0.03070733      -0.86593823
N        2.20235292      -1.28614093       0.75508662
C        3.56146803      -0.84432546       0.51157698
H       -2.36480155       0.61387156      -2.39391271
H       -0.69985755       0.97849038      -2.86963938
H       -1.64735361      -0.16139365      -3.82968448
H       -1.51953759       0.02994012      -0.36152888
H       -0.45916287      -1.04288551       1.26626951
H       -1.25176564      -3.26629807       0.48279451
H        0.38828648      -3.34154584       1.10985569
H        0.10153933      -3.34717344      -0.64675703
H        2.04770396      -2.09738901       1.32064069
H        3.93246493      -1.20414985      -0.44687020
H        4.20458337      -1.20709348       1.30827418
H        3.58649895       0.24066499       0.49009495
22
Properties=species:S:1:pos:R:3 Unnamed=T conformer=T 0=T target_phi=60 target_psi=-180 actual_phi=59.99999999982078 actual_psi=179.99999999999997 Energy=-13501.9384514907 pbc="F F F"
C       -1.53524797      -0.02809764      -2.92324890
C       -0.97185042      -1.09327020      -2.01937369
O       -0.39414917      -2.06823695      -2.44990983
N       -1.15361991      -0.87169858      -0.66852888
C       -0.18771817      -1.42944918       0.26110824
C       -0.23684400      -2.95240588       0.33056023
C        1.20907762      -0.85855720      -0.04684178
O        1.37242316       0.00495088      -0.88521690
N        2.21016023      -1.29876354       0.75128912
C        3.57042601      -0.85734040       0.51446644
H       -2.39232163       0.48141750      -2.48617027
H       -0.74498583       0.70319096      -3.09350667
H       -1.80828634      -0.47038279      -3.87588979
H       -1.39040420       0.08477152      -0.45859245
H       -0.46118824      -1.03248230       1.24103559
H       -1.26604605      -3.26450722       0.48378400
H        0.34914817      -3.32033189       1.17393586
H        0.12895971      -3.39091466      -0.59035020
H        2.04993169      -2.09754169       1.33270822
H        3.94896139      -1.22091644      -0.43952171
H        4.20845796      -1.21656309       1.31689525
H        3.59561919       0.22765417       0.48940960
22
Properties=species:S:1:pos:R:3 Unnamed=T conformer=T 0=T target_phi=70 target_psi=-180 actual_phi=70.00000000021018 actual_psi=180.0 Energy=-13501.94076716548 pbc="F F F"
C       -1.64797994      -0.22947728      -2.98013830
C       -1.09353703      -1.25341166      -2.02221039
O       -0.63557145      -2.30994974      -2.40064326
N       -1.12812034      -0.87733659      -0.69758185
C       -0.17668324      -1.43570467       0.24475503
C       -0.22786368      -2.95505149       0.35718290
C        1.22318366      -0.87491133      -0.06172429
O        1.39334089      -0.04468870      -0.93222735
N        2.22003759      -1.31046983       0.74254556
C        3.58301643      -0.87311130       0.52019892
H       -2.46075480       0.35122968      -2.54738498
H       -0.83516231       0.45280382      -3.23149604
H       -1.98055273      -0.72296181      -3.88702521
H       -1.26755265       0.11268375      -0.56784006
H       -0.45607649      -1.01676797       1.21425782
H       -1.26430931      -3.27017302       0.43445588
H        0.29112536      -3.28725036       1.25740247
H        0.21226711      -3.42629320      -0.51348696
H        2.04087722      -2.06265967       1.37746726
H        3.97488842      -1.25503383      -0.42051571
H        4.20948065      -1.21788291       1.33800697
H        3.61054743       0.21116615       0.47464932
22
Properties=species:S:1:pos:R:3 Unnamed=T conformer=T 0=T target_phi=80 target_psi=-180 actual_phi=80.00000000007451 actual_psi=180.00000000000006 Energy=-13501.914489709468 pbc="F F F"
C       -1.75534513      -0.40827550      -3.00456649
C       -1.22718345      -1.39693242      -1.99370484
O       -0.91803503      -2.52876430      -2.29796431
N       -1.10968931      -0.89019679      -0.72232568
C       -0.17509077      -1.44223969       0.23807735
C       -0.21848206      -2.95790853       0.39140836
C        1.22489055      -0.88404558      -0.06839776
O        1.39703685      -0.07578507      -0.95922233
N        2.21979197      -1.30624174       0.74550367
C        3.58574325      -0.88428425       0.51204832
H       -2.53591096       0.22783782      -2.59072294
H       -0.92463006       0.23054755      -3.30731000
H       -2.12641866      -0.94020458      -3.87354148
H       -1.15175039       0.11684759      -0.68556534
H       -0.46346291      -1.00098440       1.19612857
H       -1.25357604      -3.28482860       0.40740203
H        0.24535872      -3.25148943       1.33404221
H        0.28560183      -3.45434762      -0.43039838
H        2.03955555      -2.05747714       1.38203125
H        3.97702910      -1.29405159      -0.41774243
H        4.20724952      -1.21142305       1.34076794
H        3.62160465       0.19831786       0.43775297
22
Properties=species:S:1:pos:R:3 Unnamed=T conformer=T 0=T target_phi=90 target_psi=-180 actual_phi=89.99999999998965 actual_psi=180.00000000000003 Energy=-13501.882041120167 pbc="F F F"
C       -1.86707486      -0.56455595      -3.00968037
C       -1.38257731      -1.51981386      -1.94373091
O       -1.25805903      -2.70754476      -2.15419965
N       -1.09991909      -0.91539165      -0.74493326
C       -0.17445097      -1.45400054       0.23307785
C       -0.20629659      -2.96561465       0.41769216
C        1.22429381      -0.89436427      -0.07454767
O        1.39584515      -0.09246353      -0.97187118
N        2.21765764      -1.29951353       0.75034872
C        3.58509519      -0.88096591       0.51733253
H       -2.54046187       0.19055816      -2.60840515
H       -0.99841127      -0.05064932      -3.42199269
H       -2.35649754      -1.12285054      -3.79961537
H       -1.02455846       0.08845412      -0.81516591
H       -0.46723209      -0.99555301       1.18222758
H       -1.23680704      -3.30200923       0.45380028
H        0.27368934      -3.23638160       1.35914448
H        0.29099973      -3.47549422      -0.40061974
H        2.03776886      -2.04770972       1.39048275
H        3.97515591      -1.29548193      -0.41117171
H        4.20534344      -1.20799537       1.34730771
H        3.62468112       0.20160431       0.44023157
22
Properties=species:S:1:pos:R:3 Unnamed=T conformer=T 0=T target_phi=100 target_psi=-180 actual_phi=99.9999999999933 actual_psi=180.0 Energy=-13501.86648010407 pbc="F F F"
C       -2.00360869      -0.70050047      -2.99630093
C       -1.53336151      -1.61023982      -1.88184273
O       -1.57814019      -2.81843385      -1.98407163
N       -1.08073091      -0.93962029      -0.77418038
C       -0.16872806      -1.46436624       0.22717786
C       -0.20314299      -2.97262713       0.43572554
C        1.23458943      -0.91432881      -0.08369813
O        1.41296274      -0.12991377      -0.99545804
N        2.22424186      -1.30087911       0.75346591
C        3.59220199      -0.87530053       0.53513749
H       -2.57003339       0.14826253      -2.61717306
H       -1.13184635      -0.31142077      -3.52246149
H       -2.60714552      -1.27420390      -3.69050504
H       -0.88043188       0.03321223      -0.95740113
H       -0.46590031      -0.99283261       1.16863390
H       -1.23160134      -3.29843570       0.54508105
H        0.33594126      -3.23780584       1.34579580
H        0.23444150      -3.49682367      -0.40702952
H        2.03389880      -2.01074252       1.43226851
H        3.99179709      -1.28677401      -0.39025081
H        4.20585810      -1.20264321       1.36957910
H        3.63181004       0.20763872       0.46046892
22
Properties=species:S:1:pos:R:3 Unnamed=T conformer=T 0=T target_phi=110 target_psi=-180 actual_phi=110.00000000128162 actual_psi=180.0 Energy=-13501.872826435945 pbc="F F F"
C       -2.15504056      -0.81458821      -2.95958585
C       -1.67531604      -1.67151997      -1.80597258
O       -1.85937554      -2.87133330      -1.79047586
N       -1.06151417      -0.95932792      -0.80743588
C       -0.15973151      -1.46392619       0.21568609
C       -0.19233088      -2.97049364       0.44055116
C        1.25020027      -0.92672025      -0.09463573
O        1.44670166      -0.16353426      -1.02095132
N        2.22710518      -1.29906330       0.76269613
C        3.59961936      -0.87978485       0.56222055
H       -2.58231484       0.12614469      -2.61706140
H       -1.31218191      -0.58179395      -3.61047419
H       -2.89039940      -1.37544018      -3.52558795
H       -0.78014515      -0.03128687      -1.09123404
H       -0.46042302      -0.98149064       1.15067815
H       -1.21312925      -3.28957272       0.61712695
H        0.40363783      -3.23519282       1.31397857
H        0.18757363      -3.50133665      -0.42587774
H        2.01472932      -1.95765368       1.48507753
H        4.00282774      -1.28864793      -0.36231420
H        4.20236027      -1.21965381       1.39934202
H        3.65129985       0.20340870       0.49590329
22
Properties=species:S:1:pos:R:3 Unnamed=T conformer=T 0=T target_phi=120 target_psi=-180 actual_phi=119.99999999912684 actual_psi=180.00000000000006 Energy=-13501.895149867227 pbc="F F F"
C       -2.27072665      -0.89612238      -2.90317078
C       -1.82193099      -1.69314907      -1.69433393
O       -2.15635182      -2.85064176      -1.54055508
N       -1.05597072      -0.97206444      -0.81737849
C       -0.16258400      -1.46574120       0.21878819
C       -0.18463457      -2.97362484       0.44511347
C        1.24929989      -0.93709660      -0.10394800
O        1.45325471      -0.19963477      -1.05016580
N        2.22283529      -1.29819329       0.76027665
C        3.59607690      -0.88015860       0.56536967
H       -2.55461568       0.12028397      -2.63659021
H       -1.45272119      -0.83538381      -3.62126217
H       -3.10716604      -1.40946140      -3.36383854
H       -0.70409890      -0.10431806      -1.19696195
H       -0.45972216      -0.98110786       1.15442368
H       -1.19651181      -3.29812627       0.65611559
H        0.44767090      -3.23947543       1.29202011
H        0.16643210      -3.50046292      -0.43658147
H        1.99727309      -1.91237134       1.51700076
H        3.99803892      -1.28731888      -0.36010207
H        4.19589745      -1.22602527       1.40210309
H        3.65310692       0.20321652       0.50399615
22
Properties=species:S:1:pos:R:3 Unnamed=T conformer=T 0=T target_phi=130 target_psi=-180 actual_phi=129.99999999486874 actual_psi=180.00000000000006 Energy=-13501.925249242286 pbc="F F F"
C       -2.38133447      -0.95855163      -2.83401838
C       -1.94992077      -1.67743853      -1.57056771
O       -2.41048700      -2.76145487      -1.27053078
N       -1.04727382      -0.97494894      -0.82316411
C       -0.16766334      -1.46296627       0.22655893
C       -0.18525344      -2.97455227       0.43937292
C        1.24682986      -0.94633539      -0.10446982
O        1.45823706      -0.24159406      -1.07428583
N        2.21923599      -1.29759844       0.76395127
C        3.59299139      -0.88233870       0.56577420
H       -2.52937340       0.10604364      -2.66305060
H       -1.61070738      -1.06884238      -3.59715678
H       -3.29991632      -1.41099308      -3.18988236
H       -0.64045296      -0.17566845      -1.28825205
H       -0.46623891      -0.98514487       1.16555643
H       -1.18679289      -3.30017036       0.69155659
H        0.48918544      -3.25293660       1.24828113
H        0.12270200      -3.48886959      -0.46619795
H        1.98172884      -1.85843720       1.55787078
H        3.98778034      -1.29056264      -0.36186824
H        4.19530229      -1.23306598       1.39873203
H        3.65637666       0.20102800       0.50463315
22
Properties=species:S:1:pos:R:3 Unnamed=T conformer=T 0=T target_phi=140 target_psi=-180 actual_phi=140.00000000890276 actual_psi=180.0 Energy=-13501.959821912402 pbc="F F F"
C       -2.49879386      -0.99680407      -2.75076020
C       -2.06035043      -1.63116504      -1.44486905
O       -2.61519969      -2.61849817      -1.00113391
N       -1.03561850      -0.97318490      -0.83248639
C       -0.16998111      -1.45548316       0.22925415
C       -0.18770282      -2.97055978       0.42925558
C        1.24671359      -0.95071519      -0.10472929
O        1.46659493      -0.27295764      -1.09218151
N        2.21527157      -1.29476991       0.77014719
C        3.59139713      -0.88772698       0.57115580
H       -2.51028265       0.08976966      -2.68993211
H       -1.80738142      -1.27886652      -3.54471425
H       -3.48792280      -1.36661501      -2.99505684
H       -0.58502361      -0.25075735      -1.37573393
H       -0.47046364      -0.98186366       1.16992488
H       -1.18154682      -3.29552650       0.70991978
H        0.51448719      -3.26069463       1.20917506
H        0.08958145      -3.47340388      -0.49317235
H        1.96708936      -1.81959974       1.58541660
H        3.98065596      -1.29840585      -0.35736430
H        4.19251532      -1.24511856       1.40205670
H        3.66430350       0.19525316       0.51111391
22
Properties=species:S:1:pos:R:3 Unnamed=T conformer=T 0=T target_phi=150 target_psi=-180 actual_phi=150.00000000332864 actual_psi=179.99999999999994 Energy=-13501.997501371583 pbc="F F F"
C       -2.62641232      -1.00322674      -2.65228359
C       -2.15236112      -1.56180840      -1.32460107
O       -2.76716570      -2.44014568      -0.74797677
N       -1.02105482      -0.97334959      -0.85061088
C       -0.16714486      -1.44421412       0.22267084
C       -0.18362135      -2.96209103       0.41512693
C        1.25123584      -0.95114230      -0.11012780
O        1.48450025      -0.30229534      -1.11414640
N        2.21004660      -1.28841931       0.77741636
C        3.59121614      -0.89748034       0.58496487
H       -2.48333040       0.07370971      -2.71788756
H       -2.06518145      -1.46458770      -3.46416392
H       -3.67595887      -1.24780051      -2.76931322
H       -0.54185929      -0.32976083      -1.46301873
H       -0.47110672      -0.97192617       1.16267072
H       -1.17798872      -3.28925611       0.69028496
H        0.51861302      -3.25680741       1.19304533
H        0.09732158      -3.45594170      -0.51142917
H        1.94456222      -1.77654541       1.60999882
H        3.97698916      -1.31272582      -0.34273526
H        4.18427881      -1.26463104       1.41730559
H        3.67919493       0.18459855       0.52813289
22
Properties=species:S:1:pos:R:3 Unnamed=T conformer=T 0=T target_phi=160 target_psi=-180 actual_phi=159.9999999959292 actual_psi=180.00000000000006 Energy=-13502.039773744396 pbc="F F F"
C       -2.74399300      -0.97724953      -2.54512928
C       -2.22999555      -1.45992414      -1.20330944
O       -2.88669212      -2.20460246      -0.49718713
N       -1.00818615      -0.97116199      -0.86789533
C       -0.16399998      -1.43325046       0.21295828
C       -0.17840189      -2.95390714       0.39895787
C        1.25615909      -0.95454743      -0.11738786
O        1.50186215      -0.33129114      -1.13496644
N        2.20680013      -1.28791664       0.77989673
C        3.59108995      -0.90558731       0.59405025
H       -2.44825487       0.04918191      -2.75363934
H       -2.34321518      -1.60917174      -3.33684221
H       -3.82510674      -1.06042075      -2.54713246
H       -0.51409942      -0.40107514      -1.53703488
H       -0.47670160      -0.96408229       1.15030692
H       -1.18821939      -3.29020833       0.59599031
H        0.46215669      -3.24458300       1.23026574
H        0.18634305      -3.44122144      -0.50246594
H        1.93053323      -1.75492595       1.62119299
H        3.97748590      -1.32406028      -0.33192913
H        4.17805274      -1.27735418       1.42890125
H        3.68763396       0.17616837       0.53780033
22
Properties=species:S:1:pos:R:3 Unnamed=T conformer=T 0=T target_phi=170 target_psi=-180 actual_phi=170.00000000664676 actual_psi=179.99999999999997 Energy=-13502.090725354894 pbc="F F F"
C       -2.85364596      -0.91868266      -2.43790011
C       -2.26399350      -1.37961755      -1.12307821
O       -2.91869897      -2.03686804      -0.33111060
N       -0.98770840      -0.98359462      -0.89780856
C       -0.15707749      -1.43984310       0.19364158
C       -0.15129841      -2.96482962       0.34435669
C        1.25741932      -0.93068444      -0.09863486
O        1.51192377      -0.29544363      -1.10698810
N        2.19616935      -1.25468596       0.81438948
C        3.58426951      -0.88228225       0.63575344
H       -2.17653302      -0.29703327      -3.01976682
H       -3.12781329      -1.79740256      -3.01727043
H       -3.76539610      -0.36735971      -2.22347535
H       -0.49716845      -0.43885489      -1.58891103
H       -0.50546411      -0.99694425       1.13021986
H       -1.16210397      -3.32022452       0.50166388
H        0.46643999      -3.26782667       1.18851620
H        0.24937643      -3.42161962      -0.55781309
H        1.91846657      -1.75545521       1.63552254
H        3.99092863      -1.34383191      -0.26116591
H        4.15601441      -1.20992703       1.49896196
H        3.67899544       0.19508474       0.52823333
22
Properties=species:S:1:pos:R:3 Unnamed=T conformer=T 0=T target_phi=180 target_psi=-180 actual_phi=180.0000000100119 actual_psi=179.99999999999997 Energy=-13502.126291798111 pbc="F F F"
C       -2.94084723      -0.81707430      -2.32916114
C       -2.29060646      -1.25555948      -1.03597617
O       -2.93366940      -1.78551631      -0.14470464
N       -0.96408711      -1.00054300      -0.94102680
C       -0.14343925      -1.43655981       0.16327379
C       -0.16512193      -2.95745168       0.34567216
C        1.27528683      -0.94400195      -0.12223802
O        1.54665787      -0.33020294      -1.13948071
N        2.19898195      -1.25824846       0.80990235
C        3.58885287      -0.88225411       0.65378818
H       -2.25014415      -0.33008092      -3.01434391
H       -3.37217123      -1.69251051      -2.80901224
H       -3.75573965      -0.13996123      -2.08591472
H       -0.47496838      -0.50888499      -1.67078043
H       -0.50061482      -0.97383940       1.08654763
H       -1.18536835      -3.28834732       0.49804345
H        0.43287314      -3.25532043       1.20580073
H        0.23814076      -3.44105600      -0.54114081
H        1.90342346      -1.73410230       1.63995168
H        4.00903758      -1.33829972      -0.23978051
H        4.14749769      -1.21571403       1.52337988
H        3.68501586       0.19633313       0.55491294
