22
Unnamed conformer 0
C    -2.84687809   1.30333355  -0.82714153
C    -2.08481263   0.45074665   0.15117796
O    -2.54277167   0.14857372   1.24722420
N    -0.84723189   0.05098119  -0.29041305
C    -0.02481182  -0.88997864   0.47400638
C    -0.37880545  -2.32966082   0.12488487
C     1.47082523  -0.59845805   0.23079853
O     2.34162647  -1.46319517   0.24395679
N     1.75605254   0.75169923   0.11984178
C     3.11538754   1.22581188   0.08854300
H    -2.21730264   1.62283357  -1.66220113
H    -3.69111191   0.72989139  -1.21867707
H    -3.21277804   2.19635550  -0.31299255
H    -0.59641010   0.19695062  -1.26075496
H    -0.20916450  -0.72687941   1.54289141
H    -1.43878174  -2.53143153   0.31197883
H     0.21100830  -3.03559717   0.71896908
H    -0.18143343  -2.53782162  -0.93279229
H     1.01817879   1.39349884   0.38821525
H     3.51997876   1.19664575   1.10367025
H     3.11667924   2.25341666  -0.28173865
H     3.72255703   0.59228384  -0.56356589
22
Unnamed conformer 1
C    -2.88678933  -1.09563569   0.22037826
C    -1.57232600  -0.81772134  -0.45534253
O    -0.94370393  -1.68328159  -1.05779796
N    -1.11466196   0.46791466  -0.30042390
C     0.17503884   0.89870646  -0.84605646
C     0.14762468   2.39862498  -1.11417894
C     1.33625139   0.51963564   0.10529421
O     2.16516863   1.33041923   0.51129429
N     1.40144024  -0.82795471   0.40081943
C     2.50290800  -1.38635211   1.13882595
H    -2.70384629  -1.64066455   1.14995449
H    -3.42235118  -0.16939195   0.44704656
H    -3.51164650  -1.69767377  -0.44502044
H    -1.49553670   1.01594859   0.46101534
H     0.34868323   0.37322361  -1.79337182
H    -0.66289958   2.65572721  -1.80461134
H    -0.01090850   2.96526589  -0.18953690
H     1.09128168   2.73633046  -1.55555839
H     0.81830481  -1.45330486  -0.15664109
H     2.20689169  -2.36778401   1.51604008
H     3.35785546  -1.49050143   0.46565887
H     2.77322132  -0.73153072   1.97147887
22
Unnamed conformer 2
C     3.00521937  -1.14932419  -0.28680250
C     2.03658832  -0.36866168   0.56000150
O     2.27134323  -0.09041931   1.73039628
N     0.88246979  -0.00473050  -0.08960261
C    -0.11067251   0.86995840   0.53865271
C     0.23042419   2.33588456   0.30499564
C    -1.52068462   0.52506608   0.01522225
O    -2.42039855   1.35096249  -0.10580934
N    -1.71459249  -0.83059472  -0.18769138
C    -3.02055112  -1.36028158  -0.48342389
H     3.87775994  -0.52578310  -0.49830835
H     2.55512615  -1.46231330  -1.23296443
H     3.31418484  -2.04546443   0.25835221
H     0.82053104  -0.12316658  -1.09355416
H    -0.11691281   0.67317739   1.61769901
H     0.21963486   2.57666267  -0.76405861
H    -0.49172298   2.99245014   0.80157140
H     1.22726186   2.57491332   0.69028161
H    -1.00771305  -1.45055581   0.19225401
H    -2.90402396  -2.37176515  -0.87890324
H    -3.52858844  -0.72804829  -1.21652554
H    -3.60468302  -1.38796641   0.44018406
22
Unnamed conformer 3
C    -2.29444844   1.27567747  -1.77397053
C    -1.57852871   0.79400221  -0.54226585
O    -1.47548122   1.47861743   0.47163613
N    -1.01158568  -0.45090628  -0.66512607
C    -0.22974684  -1.05285292   0.41793171
C    -0.28301948  -2.57210761   0.31104141
C     1.23096677  -0.53980574   0.40132471
O     2.20616950  -1.28685951   0.38717439
N     1.34306713   0.83470695   0.47705584
C     2.61922422   1.48044011   0.63243185
H    -3.23280699   1.75350894  -1.47933137
H    -1.66104531   1.99581210  -2.29822583
H    -2.52962683   0.44724465  -2.44815513
H    -0.84710477  -0.80448029  -1.59953905
H    -0.66769225  -0.75024882   1.37726797
H     0.15775856  -2.92046030  -0.62999175
H     0.26694779  -3.04346038   1.13244959
H    -1.31818207  -2.92851375   0.34515218
H     0.49827537   1.35611789   0.71439395
H     3.36629453   1.00468721  -0.00843847
H     2.51137330   2.53338188   0.36260356
H     2.92919140   1.39549878   1.67724949
22
Unnamed conformer 4
C     2.64092038   1.61454083   0.17787612
C     1.62197155   0.69209381  -0.43243748
O     1.23659199   0.80883959  -1.59225030
N     1.12675621  -0.25651551   0.42850258
C     0.08663043  -1.20316659   0.01787448
C     0.18720056  -2.47498381   0.85139892
C    -1.32054449  -0.56742844   0.13133753
O    -2.24474254  -1.08585610   0.75294913
N    -1.46726809   0.60134409  -0.58979056
C    -2.74571345   1.24591779  -0.73048261
H     3.06240265   1.19257052   1.09462388
H     3.45656433   1.76883179  -0.53386079
H     2.16550530   2.57118255   0.40907706
H     1.22870195  -0.09119187   1.42221908
H     0.24155454  -1.45896531  -1.03770918
H    -0.56009973  -3.21117774   0.53689953
H     1.17821742  -2.93008034   0.74882787
H     0.02514830  -2.26732050   1.91525696
H    -0.72653236   0.83279282  -1.25282439
H    -3.28274002   1.23661117   0.22171970
H    -2.58214945   2.27527429  -1.05727983
H    -3.32837548   0.70668696  -1.48192770
22
Unnamed conformer 5
C    -2.95612132  -1.75614911  -0.72618443
C    -1.64901796  -1.14072995  -1.14756447
O    -0.90017173  -1.68291868  -1.95396829
N    -1.37758742   0.06841382  -0.54617817
C    -0.04896099   0.65669004  -0.67267723
C    -0.13108741   2.17656350  -0.67209175
C     0.80205337   0.18384493   0.52239490
O     0.29897488  -0.15551393   1.59320355
N     2.16562409   0.24579947   0.31111769
C     3.07996000  -0.24653773   1.31060534
H    -2.75678188  -2.59195712  -0.05062322
H    -3.48501694  -2.11536126  -1.61330763
H    -3.59635988  -1.02988422  -0.21750000
H    -1.82045411   0.21830801   0.35446164
H     0.41791519   0.31365010  -1.60266022
H     0.86227369   2.62561068  -0.77562885
H    -0.56835675   2.55087387   0.26067286
H    -0.75544082   2.53215687  -1.49863206
H     2.48921877   0.26638406  -0.64828316
H     2.78842345   0.11521728   2.30033996
H     4.08477874   0.10505665   1.06586565
H     3.05613505  -1.33951730   1.30106796
22
Unnamed conformer 6
C    -3.65695787  -0.48949984   0.06979498
C    -2.42385850  -0.06077739  -0.67794377
O    -2.45747270   0.26949115  -1.85910532
N    -1.27412045  -0.07947295   0.06655928
C     0.02829638   0.23976301  -0.50398876
C     0.23613133   1.74768426  -0.58611774
C     1.10761494  -0.41262321   0.38147185
O     0.84325088  -0.90244590   1.47977835
N     2.37951095  -0.39835413  -0.15072865
C     3.50644106  -0.90609653   0.58995429
H    -3.99906310  -1.44931115  -0.32601981
H    -3.46449172  -0.59722063   1.14083237
H    -4.43645065   0.26543063  -0.06477337
H    -1.27013044  -0.47384628   1.00354429
H     0.08495441  -0.20475681  -1.50460513
H     1.20269572   1.99426333  -1.03692296
H     0.21082211   2.20232060   0.41088429
H    -0.54550574   2.22356337  -1.18734550
H     2.55535849   0.11008493  -1.00801193
H     3.23265507  -1.82125631   1.12168471
H     3.82080683  -0.14623344   1.31015678
H     4.31951300  -1.11070670  -0.11031099
22
Unnamed conformer 7
C    -2.92646295  -0.96009046   0.24765763
C    -1.56476010  -0.87845133  -0.38538961
O    -0.92181036  -1.87611125  -0.69939912
N    -1.08448277   0.39932360  -0.53685521
C     0.24821224   0.66256582  -1.08572000
C     0.27715178   2.04174155  -1.73335915
C     1.33607142   0.53320956   0.00835861
O     2.15829877   1.41432128   0.24688314
N     1.34704904  -0.69208070   0.64564016
C     2.38423386  -1.04945125   1.57635239
H    -3.52309945  -1.70871937  -0.28076706
H    -3.45102768  -0.00214187   0.19020517
H    -2.81749235  -1.24681774   1.29672864
H    -1.49871049   1.12943665   0.02931383
H     0.46814627  -0.09218978  -1.85100744
H     1.25554329   2.24514962  -2.18138208
H     0.07481130   2.83022952  -0.99951647
H    -0.48068240   2.11795075  -2.52052457
H     0.78452148  -1.43554794   0.23007844
H     2.61789931  -0.20340721   2.22810499
H     3.27736662  -1.33211622   1.01301219
H     2.03922317  -1.89680322   2.17308130
22
Unnamed conformer 8
C    -3.60081608   0.77852915  -0.24348526
C    -2.39490597   0.42273559   0.58273599
O    -2.43217061   0.37863601   1.80830352
N    -1.26452539   0.16342285  -0.14632307
C     0.01632329  -0.13358907   0.48211697
C     0.09060455  -1.59432659   0.91164412
C     1.13002332   0.19481773  -0.53099593
O     0.88659149   0.43993138  -1.71283878
N     2.40684104   0.18715552  -0.01057380
C     3.55820049   0.40451342  -0.84933028
H    -3.84733519   1.83101244  -0.08085213
H    -3.42280154   0.61797406  -1.31039684
H    -4.44139301   0.14983652   0.06280269
H    -1.24574160   0.32870359  -1.14922730
H     0.13411795   0.52284236   1.35232509
H    -0.71710483  -1.84471367   1.60720262
H     1.04089615  -1.81778406   1.40690743
H     0.00320288  -2.26259990   0.04728360
H     2.55523273  -0.12352129   0.94117537
H     3.78785604  -0.52668424  -1.37377304
H     4.40128960   0.68981768  -0.21598425
H     3.35561469   1.19329054  -1.57871672
22
Unnamed conformer 9
C    -2.48129646  -1.71021413   0.72882490
C    -1.72183449  -0.56348218   0.12065452
O    -1.89897101  -0.19419301  -1.03673938
N    -0.78429554   0.00072453   0.95071889
C     0.08415962   1.09288063   0.50394602
C     0.52020815   1.92905982   1.70105202
C     1.30613589   0.54870902  -0.27568809
O     2.46662649   0.83703637   0.00616017
N     0.97335015  -0.23403009  -1.36387820
C     1.96872364  -0.69463555  -2.29488054
H    -3.53788906  -1.62237845   0.46134065
H    -2.40334344  -1.70627392   1.81971500
H    -2.07903873  -2.65083714   0.34404674
H    -0.46305323  -0.54574799   1.74025520
H    -0.48135914   1.73129623  -0.18620252
H    -0.34931948   2.32793177   2.23450469
H     1.14283164   2.77283876   1.38525731
H     1.10182587   1.33204456   2.41272008
H    -0.00512910  -0.23162043  -1.65447157
H     2.86342483  -1.02630607  -1.76133086
H     2.22905470   0.12924645  -2.96449471
H     1.54918871  -1.52204918  -2.87151031
22
Unnamed conformer 10
C     3.61879724  -0.09252859   0.66726877
C     2.36018817  -0.76395677   0.18928410
O     2.36931447  -1.87389110  -0.33352134
N     1.21903465  -0.03031402   0.37908228
C    -0.08655585  -0.48995401  -0.07615970
C    -0.69881400  -1.47411367   0.91348145
C    -0.99220787   0.74439714  -0.25154074
O    -0.65417799   1.86414367   0.13265721
N    -2.20344183   0.48883034  -0.86103956
C    -3.11574692   1.56038024  -1.17190784
H     4.17230456  -0.78557985   1.30676423
H     3.40193290   0.80968661   1.24585148
H     4.22881713   0.18029349  -0.19781571
H     1.26971530   0.93221109   0.70218662
H     0.03882015  -0.96808522  -1.05484508
H    -0.04710136  -2.34078808   1.06529254
H    -1.66899563  -1.84050554   0.56254823
H    -0.85673130  -1.00221771   1.89003995
H    -2.32638069  -0.39479236  -1.33986593
H    -4.10162053   1.13210068  -1.36648975
H    -3.17259548   2.26492746  -0.33782186
H    -2.75455513   2.07975619  -2.06344935
22
Unnamed conformer 11
C     3.35606718  -0.13623146   0.93978679
C     2.08487561   0.58693747   0.58493781
O     1.72839100   1.60717289   1.16551105
N     1.37005481  -0.00099074  -0.43522853
C     0.01138550   0.44775401  -0.71801090
C    -0.30168875   0.31412195  -2.20154994
C    -0.96284497  -0.42526953   0.09728665
O    -0.67641169  -1.56631616   0.45902105
N    -2.19784433   0.15255542   0.31795843
C    -3.17685285  -0.51410895   1.13922764
H     3.21397669  -0.66696998   1.88467786
H     4.16535526   0.59196578   1.04241241
H     3.63904890  -0.85449757   0.16510068
H     1.51780052  -0.99776767  -0.55505934
H    -0.10186538   1.49332241  -0.41063855
H    -0.22477900  -0.72812665  -2.53195152
H     0.39817000   0.90588824  -2.80108569
H    -1.31761603   0.65754024  -2.42310335
H    -2.26317926   1.16000619   0.23820174
H    -4.14289330  -0.02521793   0.99455871
H    -3.24707100  -1.56939620   0.86196526
H    -2.87207891  -0.43237173   2.18598175
22
Unnamed conformer 12
C     3.53922399  -0.96772103  -0.31540576
C     2.47902395  -0.16024080   0.38273571
O     2.72752476   0.53916555   1.35968363
N     1.22638453  -0.28054953  -0.15851477
C     0.06107862   0.37421605   0.42206314
C    -0.01500104   1.83609915  -0.00323113
C    -1.19337743  -0.39390543  -0.03718232
O    -1.14751366  -1.25247902  -0.91856806
N    -2.35812756  -0.04060127   0.61065596
C    -3.62507018  -0.61915533   0.24117412
H     3.86624367  -1.77497196   0.34516044
H     3.16915436  -1.40224664  -1.24814587
H     4.38559003  -0.31701140  -0.55179479
H     1.04145470  -0.96185699  -0.89002607
H     0.13248627   0.30125786   1.51367596
H     0.88728939   2.38217078   0.29099439
H    -0.11590513   1.92370314  -1.09111463
H    -0.87466085   2.34020917   0.44968288
H    -2.35427764   0.74342099   1.25070304
H    -3.51120169  -1.68643691   0.03342635
H    -4.32799662  -0.47238172   1.06438502
H    -3.99232245  -0.11068465  -0.65408788
22
Unnamed conformer 13
C     2.62767543   1.25359818   1.06614788
C     1.59626493   0.86420439   0.04330242
O     1.16513688   1.65299101  -0.79291316
N     1.14523506  -0.42823823   0.15501956
C     0.10064941  -0.95952628  -0.72429820
C     0.24747352  -2.47147283  -0.84619225
C    -1.30809582  -0.57179673  -0.21216508
O    -2.20178902  -1.39168537  -0.01619435
N    -1.49554402   0.78846490  -0.06338235
C    -2.78556789   1.34271584   0.25020232
H     3.41346405   1.83713633   0.57863143
H     3.08891186   0.37320111   1.52254156
H     2.15091205   1.85330187   1.84569152
H     1.28361203  -0.90163787   1.03929408
H     0.21756634  -0.51152579  -1.71894242
H    -0.50315576  -2.88560603  -1.52766045
H     1.23880398  -2.73651005  -1.22929563
H     0.12428893  -2.96282609   0.12570033
H    -0.78356880   1.40079628  -0.46339859
H    -2.64620963   2.36174786   0.61800218
H    -3.28531922   0.73589070   1.00992779
H    -3.39074433   1.35677680  -0.66001859
22
Unnamed conformer 14
C    -2.87412409   1.18138282  -0.88691636
C    -2.07442564   0.49349458   0.18641980
O    -2.48736718   0.37932133   1.33480879
N    -0.85726500   0.01515933  -0.23326762
C    -0.00635515  -0.79550709   0.64131172
C    -0.37830249  -2.26954618   0.54779924
C     1.47868100  -0.56184673   0.29326641
O     2.34699909  -1.42088378   0.41292307
N     1.76261969   0.74913873  -0.04920735
C     3.12073358   1.19891817  -0.21284942
H    -3.73540020   0.55952776  -1.14452958
H    -2.27887047   1.35375071  -1.78787674
H    -3.21599578   2.15000552  -0.51193247
H    -0.64648101  -0.00220398  -1.22374825
H    -0.14582447  -0.45773767   1.67550844
H    -0.22548041  -2.65005349  -0.46848168
H    -1.43014219  -2.42796225   0.80818871
H     0.23376360  -2.87410287   1.22533106
H     1.03819459   1.43314565   0.13982332
H     3.56696898   1.33269158   0.77609196
H     3.69868656   0.46141283  -0.77615821
H     3.10938700   2.15189506  -0.74650485
22
Unnamed conformer 15
C    -2.77462834  -1.29906946   0.50621721
C    -1.49705573  -0.99486889  -0.22653026
O    -0.79986845  -1.87123861  -0.72973896
N    -1.15430355   0.33501057  -0.24257609
C     0.08628667   0.80449981  -0.86478265
C    -0.07745170   2.25059657  -1.31687877
C     1.28620248   0.65088412   0.10154111
O     2.04358078   1.57548100   0.38581035
N     1.47425662  -0.63793748   0.56106194
C     2.62850688  -1.00082756   1.33933460
H    -2.53445957  -1.70474393   1.49231291
H    -3.35000027  -2.03222616  -0.06569194
H    -3.38832152  -0.40191183   0.62714104
H    -1.57482837   0.93920849   0.45262222
H     0.29653427   0.18112434  -1.74278590
H     0.82784059   2.61104782  -1.81674908
H    -0.27654727   2.91310771  -0.46680985
H    -0.91458869   2.34709892  -2.01661939
H     0.94360888  -1.37692053   0.09825647
H     3.48250485  -1.11394024   0.66640754
H     2.42498626  -1.94901716   1.84196931
H     2.84774518  -0.22535748   2.07808546
22
Unnamed conformer 16
C    -3.27907274   1.18457186  -0.09450008
C    -2.06500569   0.63654592   0.60587834
O    -1.71434698   1.03131151   1.71322943
N    -1.39426706  -0.33218123  -0.10759587
C    -0.07683724  -0.77428333   0.33539906
C     0.14419873  -2.23952888  -0.01239365
C     0.98405486   0.09145758  -0.37241867
O     0.76970035   0.63913801  -1.45361308
N     2.20560250   0.13531099   0.27077688
C     3.26303213   0.97573629  -0.23212485
H    -3.58172660   0.54798401  -0.93073044
H    -4.10963331   1.23414141   0.61505093
H    -3.05366720   2.18576166  -0.47067400
H    -1.50776922  -0.29082450  -1.11514647
H     0.01244880  -0.63555327   1.41858880
H     1.12830458  -2.58124859   0.32508685
H     0.08949769  -2.40403967  -1.09466252
H    -0.61733420  -2.86981936   0.45902305
H     2.22347515  -0.09865642   1.25593039
H     4.19633236   0.69160338   0.25919727
H     3.35903516   0.85517948  -1.31456874
H     3.02397791   2.01739315  -0.00176033
22
Unnamed conformer 17
C     2.58026772   1.66794854   0.40220369
C     1.69054859   0.62873769  -0.22236725
O     1.55615016   0.51888185  -1.43776073
N     1.00799041  -0.15072254   0.67922640
C     0.05572025  -1.17667883   0.24653669
C    -0.04521310  -2.26765734   1.30576986
C    -1.33077052  -0.55714869  -0.05513225
O    -2.37432782  -0.96694874   0.44722468
N    -1.30041287   0.45285100  -0.99670751
C    -2.50819162   1.03581086  -1.51739897
H     2.08752455   2.64198885   0.34665185
H     3.52863930   1.70121109  -0.14106159
H     2.79387564   1.43315199   1.44880593
H     0.90548007   0.19976774   1.62360157
H     0.42039110  -1.62286010  -0.68707372
H    -0.41958336  -1.86733238   2.25485592
H     0.93577347  -2.71545429   1.49784161
H    -0.72653588  -3.06347867   0.98668285
H    -0.43376623   0.56963014  -1.52316564
H    -3.23078485   1.19515952  -0.71263999
H    -2.93387146   0.35460090  -2.25880660
H    -2.25890353   1.98854139  -1.98992804
22
Unnamed conformer 18
C    -2.70139096   1.48853923   0.31558271
C    -1.70961897   0.37098078   0.48616952
O    -1.49016975  -0.15681780   1.57271621
N    -1.03929530   0.02626238  -0.66193814
C     0.00151619  -1.00490453  -0.66752958
C     0.10193203  -1.63024344  -2.05362671
C     1.36300036  -0.42373483  -0.21389905
O     2.39549755  -0.53866064  -0.86968232
N     1.33033808   0.17437642   1.03060124
C     2.53031714   0.62821145   1.68158149
H    -2.26820073   2.41444687   0.70246516
H    -3.61280423   1.24654360   0.86913104
H    -2.96716719   1.62880154  -0.73599805
H    -1.02035890   0.69979718  -1.41770869
H    -0.27320314  -1.78501436   0.05333738
H     0.38818666  -0.88640667  -2.80591866
H    -0.85938419  -2.05791138  -2.35812601
H     0.85109918  -2.42886035  -2.07120887
H     0.49398333   0.02275444   1.59575010
H     3.04504528  -0.23655246   2.10840111
H     2.25283560   1.32366577   2.47686240
H     3.18784194   1.12472677   0.96303772
22
Unnamed conformer 19
C    -2.13156863   2.21520020  -0.40937376
C    -1.53416180   0.95708687   0.15799253
O    -1.52966206   0.71264775   1.36113111
N    -0.95446940   0.13263271  -0.77503920
C    -0.27700196  -1.10892100  -0.39266848
C    -0.31543089  -2.09684944  -1.55237484
C     1.17719615  -0.83227717   0.06115488
O     2.15154802  -1.41076326  -0.41350626
N     1.27756605   0.07220852   1.10010382
C     2.53134987   0.33222859   1.75592792
H    -3.09502365   2.40337468   0.07228628
H    -2.29937312   2.12647940  -1.48645417
H    -1.45346214   3.05119301  -0.21984141
H    -0.70114967   0.53577719  -1.66862791
H    -0.80476802  -1.54765421   0.46329197
H     0.21356253  -1.70341508  -2.42790557
H    -1.34811288  -2.30369134  -1.85326255
H     0.15560747  -3.04607034  -1.27587613
H     0.41255343   0.32547826   1.57914381
H     2.74115214  -0.48820028   2.44717004
H     3.33718937   0.40338686   1.02058411
H     2.44645919   1.27014809   2.30930470
22
Unnamed conformer 20
C    -2.90211367   1.08738620  -0.09042781
C    -1.53713809   0.83425666   0.48785895
O    -0.86386285   1.72172807   1.00400579
N    -1.09091524  -0.45695496   0.34653053
C     0.23923407  -0.86784823   0.80314291
C     0.23630177  -2.35623579   1.13039155
C     1.31963381  -0.52725269  -0.25227591
O     2.11485254  -1.35412419  -0.69184450
N     1.35831342   0.80781656  -0.60395636
C     2.39593568   1.33592984  -1.44901736
H    -3.45236258   0.15370662  -0.23739967
H    -2.79539540   1.59581878  -1.05206404
H    -3.47271328   1.71546935   0.59919412
H    -1.53060682  -1.03358331  -0.36012907
H     0.48732419  -0.30631236   1.71243946
H     0.00516686  -2.95803998   0.24405846
H    -0.51570845  -2.58546338   1.89307360
H     1.21298096  -2.67773457   1.50733370
H     0.82059090   1.45496115  -0.02608912
H     2.59980081   0.64907319  -2.27475243
H     2.06873125   2.30239521  -1.83889721
H     3.30195012   1.46500783  -0.85117556
22
Unnamed conformer 21
C     3.30277874   0.86661331  -0.71106209
C     2.08861128  -0.01597555  -0.81901878
O     1.76552120  -0.55884501  -1.87065244
N     1.38440756  -0.14908134   0.35730935
C     0.06498561  -0.77057917   0.34370415
C    -0.19472431  -1.51071652   1.64812300
C    -0.98789810   0.34019664   0.16034881
O    -0.77944075   1.50486560   0.49942901
N    -2.19720082  -0.09814183  -0.34288788
C    -3.24375937   0.84510856  -0.64681994
H     3.57699453   1.04639286   0.33230126
H     3.09365556   1.82370768  -1.19575962
H     4.14601788   0.37737886  -1.20638778
H     1.48191191   0.61771768   1.01477533
H    -0.00298828  -1.47053930  -0.49650583
H     0.56025563  -2.28715780   1.81114728
H    -0.16190023  -0.82884679   2.50564238
H    -1.18045969  -1.98759916   1.64190447
H    -2.20381976  -0.97973140  -0.84122908
H    -3.36057145   1.55743347   0.17438801
H    -2.97753258   1.38341334  -1.56039192
H    -4.17484458   0.29438585  -0.79835767
22
Unnamed conformer 22
C     3.47271342   1.04473573   0.77734868
C     2.40472838   0.55778864  -0.16375335
O     2.58915552   0.47164887  -1.37368297
N     1.22019502   0.23244899   0.44248165
C     0.05143426  -0.19830038  -0.31351708
C     0.13908534  -1.67862194  -0.66535015
C    -1.20001937   0.08835371   0.53870427
O    -1.12365981   0.44047336   1.71594047
N    -2.39928295  -0.08947285  -0.12011009
C    -3.65010489   0.22668566   0.52226643
H     4.39300537   0.48339876   0.59402051
H     3.18654159   0.90263698   1.82314748
H     3.64695361   2.10920240   0.59993138
H     1.06972438   0.43431968   1.42738054
H    -0.00817654   0.40376013  -1.22791533
H    -0.72578525  -1.99999694  -1.25472917
H     0.17095993  -2.29624568   0.23953376
H     1.04127895  -1.89514231  -1.24678376
H    -2.38903451  -0.16713139  -1.12958605
H    -4.45824775  -0.25078883  -0.03644222
H    -3.78362203   1.31164971   0.51315119
H    -3.64784268  -0.13140229   1.55526477
22
Unnamed conformer 23
C     3.33109018  -1.18763937   1.02120609
C     1.98609358  -0.61002592   1.36866710
O     1.62199339  -0.45337800   2.52981100
N     1.21074529  -0.28769670   0.28634413
C    -0.14591040   0.22524902   0.42581577
C    -0.14094135   1.72146466   0.71587673
C    -0.90641767  -0.07638822  -0.88002926
O    -0.33786996  -0.50423116  -1.88472220
N    -2.26146667   0.17905098  -0.83018962
C    -3.11565831  -0.13879267  -1.94665290
H     3.35003747  -2.24360816   1.30315917
H     4.10540536  -0.64413241   1.56955086
H     3.54423930  -1.10313073  -0.04800248
H     1.49954509  -0.54662409  -0.65332079
H    -0.63614599  -0.31583204   1.24377349
H     0.32110959   2.27951545  -0.10654584
H     0.42241131   1.94668738   1.62736331
H    -1.15792601   2.10554478   0.84577942
H    -2.69355930   0.31989362   0.07459607
H    -3.29918916  -1.21645381  -1.95101696
H    -4.05967584   0.39734794  -1.82575419
H    -2.63790990   0.15317944  -2.88570893
22
Unnamed conformer 24
C     2.89703750  -1.01035465   1.01451356
C     1.62270367  -0.29074714   1.36522056
O     1.32053957  -0.02720754   2.52349341
N     0.84115245   0.03600840   0.28409635
C    -0.36639374   0.85306049   0.42683822
C    -0.02966045   2.33708075   0.36221020
C    -1.39850991   0.45799603  -0.65006715
O    -2.19889409   1.24616503  -1.14444851
N    -1.42101398  -0.90027000  -0.91689781
C    -2.44763548  -1.48015886  -1.74353630
H     3.74483662  -0.34497435   1.19719364
H     2.98621751  -1.90341025   1.63918912
H     2.91061005  -1.32273655  -0.03334279
H     1.22037005  -0.06386463  -0.64971400
H    -0.82398581   0.63352643   1.39921493
H     0.40615240   2.59960540  -0.60841611
H     0.69373327   2.61126495   1.13731644
H    -0.92570516   2.95087574   0.50193103
H    -0.91540873  -1.49661904  -0.27104967
H    -2.12426469  -2.47703740  -2.05134439
H    -2.62331808  -0.85543143  -2.62337145
H    -3.36856297  -1.55277140  -1.15902930
22
Unnamed conformer 25
C     3.49794988  -1.08293173  -0.37565653
C     2.27218475  -0.89469564   0.47607659
O     2.20453265  -1.31551516   1.62659683
N     1.24819436  -0.22826538  -0.14343865
C    -0.03937143  -0.00692263   0.50174503
C     0.01439909   1.19373710   1.43894622
C    -1.09479223   0.20631032  -0.60061880
O    -0.78620801   0.34312417  -1.78457891
N    -2.39905789   0.23889940  -0.15148679
C    -3.49810360   0.34207112  -1.07810068
H     3.60220854  -2.14272834  -0.62241046
H     3.43846425  -0.50782476  -1.30382420
H     4.37552664  -0.74464211   0.18207558
H     1.29929141  -0.00579013  -1.13405124
H    -0.30352151  -0.91139936   1.06237039
H     0.24986127   2.11167715   0.88827745
H    -0.94450663   1.34804696   1.94425671
H     0.78237560   1.06207241   2.20821701
H    -2.59580256  -0.09118072   0.78527165
H    -3.27222065   1.07736200  -1.85504445
H    -3.66052915  -0.63606270  -1.53845775
H    -4.39087478   0.64465805  -0.52616500
22
Unnamed conformer 26
C     2.61390092  -1.24619106  -1.10786573
C     1.69333420  -0.65056317  -0.07857888
O     1.52557512  -1.15519962   1.02799724
N     1.02354223   0.47280151  -0.49780154
C     0.04566425   1.15169451   0.35629725
C    -0.04308882   2.62350594  -0.02878711
C    -1.33923968   0.46468179   0.27125650
O    -2.37503370   1.06961946   0.00575577
N    -1.31910556  -0.87857236   0.59195522
C    -2.53164038  -1.64204087   0.72066574
H     2.13384737  -2.12032730  -1.55515883
H     3.54806989  -1.54392070  -0.62378275
H     2.85152016  -0.52524327  -1.89520471
H     0.95084021   0.63446367  -1.49468488
H     0.37931378   1.07842051   1.39888996
H     0.93608037   3.10726133   0.05462729
H    -0.38668061   2.74430170  -1.06248526
H    -0.74387173   3.15825803   0.62105498
H    -0.46497089  -1.24053096   1.01776161
H    -3.23054424  -1.38280234  -0.07902269
H    -2.98631227  -1.41565238   1.68863264
H    -2.28120062  -2.70396442   0.66847819
22
Unnamed conformer 27
C     3.39391620  -0.79730184  -0.17020598
C     2.20202850  -0.04671512   0.35974083
O     2.06477974   0.20546012   1.55246756
N     1.29295317   0.31955476  -0.60814191
C    -0.01429193   0.83314497  -0.21487944
C    -0.52199322   1.84683446  -1.23047475
C    -0.99347814  -0.35464607  -0.13518458
O    -0.82662547  -1.38769682  -0.78314321
N    -2.09964964  -0.12907042   0.66061803
C    -3.05407408  -1.18319127   0.89574832
H     3.29594942  -1.85427295   0.09038721
H     3.47725510  -0.70295722  -1.25661225
H     4.30312177  -0.38814834   0.27889245
H     1.28470792  -0.25879530  -1.44192494
H     0.05758062   1.30470017   0.77152176
H    -0.63192476   1.39470076  -2.22287266
H     0.17480160   2.68672221  -1.32266373
H    -1.49961169   2.24363963  -0.93732446
H    -2.03334737   0.60453150   1.35561407
H    -3.30391204  -1.68318744  -0.04394378
H    -2.61517811  -1.90702961   1.58762412
H    -3.95300759  -0.74627618   1.33643193
22
Unnamed conformer 28
C    -3.42484144   0.29484106  -0.82022946
C    -2.17650413   0.49511749  -0.00391824
O    -1.96622128   1.52517297   0.62837548
N    -1.30525724  -0.57121976  -0.03888454
C     0.04111955  -0.42281470   0.50200819
C     0.53631088  -1.74008567   1.08195907
C     0.97290552   0.02159949  -0.64266490
O     0.72932354  -0.22975273  -1.82265344
N     2.12790233   0.65338232  -0.22477147
C     3.04872833   1.19924435  -1.18991160
H    -3.56134655  -0.75515549  -1.09408931
H    -4.29131278   0.60986906  -0.23223587
H    -3.35729196   0.89589535  -1.73064970
H    -1.36502100  -1.15815067  -0.86453046
H     0.04099655   0.34611351   1.28256310
H    -0.12884525  -2.08784842   1.87949351
H     0.57490012  -2.52260598   0.31545059
H     1.54367185  -1.63432078   1.49809275
H     2.12888330   1.05910446   0.70311664
H     3.22767904   0.47759467  -1.99155612
H     3.98703227   1.43275196  -0.68173912
H     2.61718834   2.11126751  -1.61092248
22
Unnamed conformer 29
C     3.26509500   1.21602603  -0.20910336
C     2.23084840   0.12368272  -0.25315428
O     2.29768774  -0.80927198  -1.04697803
N     1.21616598   0.27329042   0.66630529
C     0.02878271  -0.56890940   0.57608546
C    -0.54695180  -0.83736071   1.95927941
C    -1.01694598   0.16505279  -0.28632778
O    -1.03271237   1.39071860  -0.39758708
N    -1.96735250  -0.66021920  -0.85505963
C    -2.95443360  -0.12046984  -1.75601664
H     3.12538028   1.87595518  -1.06914205
H     4.26153578   0.76707406  -0.24513857
H     3.18861965   1.80455784   0.70953995
H     1.03522576   1.22538951   0.96716735
H     0.28734632  -1.51844287   0.09437137
H     0.19135212  -1.33422830   2.59760794
H    -0.84239909   0.09457429   2.45483069
H    -1.43407753  -1.47662942   1.90035093
H    -1.73822161  -1.64234833  -0.94730172
H    -3.73835750  -0.86727821  -1.90065528
H    -3.38340453   0.79583412  -1.34152081
H    -2.47318321   0.10300269  -2.71190499
22
Unnamed conformer 30
C    -3.61561007   0.66570311   0.21576109
C    -2.25261301   0.66519910   0.85264502
O    -2.04669445   1.15892093   1.95681860
N    -1.27292165   0.08007375   0.09480832
C     0.12046257   0.04120114   0.51913103
C     0.36511079  -1.09987975   1.49938780
C     0.99742359  -0.11970454  -0.73770481
O     0.51632187  -0.36027760  -1.84512053
N     2.35238788   0.01881865  -0.51685677
C     3.28795511  -0.01757310  -1.61255219
H    -3.64202584   0.04627417  -0.68501181
H    -4.34266477   0.26649345   0.92827038
H    -3.88440800   1.69086048  -0.05205862
H    -1.45984644  -0.20549093  -0.86275684
H     0.36400002   1.00119336   0.98951269
H     1.40566755  -1.11691107   1.83938981
H     0.15288311  -2.06946438   1.03446214
H    -0.27562090  -1.00805421   2.38252497
H     2.66024250   0.42400696   0.35848642
H     4.28907633  -0.18618552  -1.20936684
H     3.25476170   0.94323188  -2.13294479
H     3.02611211  -0.81843589  -2.30923994
22
Unnamed conformer 31
C    -2.00559410   2.36145473  -0.06684643
C    -1.49056321   0.97030974   0.18035236
O    -1.54037966   0.43424762   1.28374186
N    -0.91920550   0.37291537  -0.91645524
C    -0.31692531  -0.96065130  -0.84240278
C    -0.36254426  -1.62509005  -2.21310976
C     1.13212569  -0.88751711  -0.30195770
O     2.09326361  -1.38324334  -0.88486406
N     1.23976277  -0.27718121   0.93233909
C     2.48083682  -0.25917276   1.65973313
H    -1.29466354   3.08464343   0.34084541
H    -2.97511306   2.47745604   0.42532162
H    -2.13945054   2.55315510  -1.13524068
H    -0.61521181   0.97095152  -1.67483313
H    -0.89527480  -1.56837023  -0.13538056
H    -1.39283079  -1.69239345  -2.57879862
H     0.05165903  -2.63808778  -2.17285675
H     0.21551101  -1.05636673  -2.95039102
H     0.37177224  -0.10309531   1.44043250
H     2.42227675   0.51470933   2.42837020
H     3.31459143  -0.05241717   0.98351015
H     2.62595723  -1.23625643   2.12790548
22
Unnamed conformer 32
C    -3.61513427   0.29921870   0.72141088
C    -2.47912602  -0.20877300  -0.12409474
O    -2.65203487  -1.00634401  -1.04024540
N    -1.24959888   0.28671845   0.22127940
C    -0.02378109  -0.14076206  -0.44080649
C     0.17185176   0.59593836  -1.76094512
C     1.15288839   0.13193546   0.51609594
O     1.02023440   0.80259990   1.54015880
N     2.35313912  -0.42759683   0.13206029
C     3.55991161  -0.20073346   0.88612903
H    -3.29763205   1.11148365   1.38109842
H    -4.40560490   0.67721704   0.06726158
H    -4.00083119  -0.52147971   1.33184965
H    -1.13485856   0.84918277   1.06030078
H    -0.08520708  -1.22125743  -0.61629764
H     0.26397960   1.67588493  -1.59792635
H     1.07833074   0.26121825  -2.27527138
H    -0.67557194   0.43358923  -2.43504231
H     2.42630282  -0.87906080  -0.77082084
H     4.28486271  -0.97466805   0.62384012
H     3.35138502  -0.23280505   1.95883702
H     3.95649471   0.78283522   0.62112836
22
Unnamed conformer 33
C    -2.22212088   1.12332296  -1.84747843
C    -1.58742460   0.68295786  -0.55717279
O    -1.62576427   1.36404342   0.46359436
N    -0.92362778  -0.51712690  -0.63125329
C    -0.20138766  -1.07140473   0.51668880
C    -0.13536519  -2.58956169   0.40163906
C     1.21416063  -0.45521310   0.63377099
O     2.23787254  -1.13055123   0.70617320
N     1.21979738   0.92305754   0.72277472
C     2.42696551   1.65686476   0.99473799
H    -3.21516412   1.53024875  -1.63788982
H    -2.33532150   0.28630182  -2.54225499
H    -1.59746818   1.89153902  -2.31039213
H    -0.65052521  -0.84963423  -1.54779629
H    -0.74470341  -0.80948502   1.43314785
H     0.41241146  -2.89707547  -0.49644410
H     0.37074770  -3.02779164   1.26833028
H    -1.14105009  -3.01928334   0.34093091
H     0.32172934   1.38064568   0.88389131
H     2.64673544   1.58489968   2.06312792
H     2.26842574   2.70179433   0.71885433
H     3.26107715   1.24145152   0.42302012
22
Unnamed conformer 34
C    -3.40266734   1.42826449   0.34674321
C    -2.42663945   0.34802319   0.72608260
O    -2.72391107  -0.56097884   1.49464887
N    -1.19015539   0.47322576   0.14991989
C    -0.09519546  -0.44046565   0.44984848
C    -0.21940279  -1.72831868  -0.35623638
C     1.22753105   0.28075483   0.12610066
O     1.25657598   1.34805496  -0.48718530
N     2.36233420  -0.36341811   0.57154915
C     3.67702728   0.15069391   0.28231546
H    -3.60057061   2.05392000   1.22100437
H    -4.33235088   0.96522631   0.00480505
H    -3.01645459   2.05870713  -0.45895509
H    -0.94890762   1.30452589  -0.38321004
H    -0.11558783  -0.66282759   1.52324476
H     0.58664553  -2.42925844  -0.11698204
H    -0.17146805  -1.52422872  -1.43206013
H    -1.17135570  -2.23102688  -0.15633306
H     2.28424904  -1.28770618   0.97646965
H     4.38655231  -0.29336331   0.98424980
H     3.69030954   1.23976231   0.37701697
H     3.94344185  -0.12956641  -0.74012673
22
Unnamed conformer 35
C    -3.24233397   0.98640819   0.88927781
C    -2.15600018  -0.03477863   0.68463863
O    -2.01732382  -1.00074687   1.42807824
N    -1.34313126   0.21894735  -0.39805987
C    -0.11265751  -0.54438468  -0.57292411
C     0.20711428  -0.71864199  -2.05080827
C     1.03183091   0.22360362   0.11725420
O     0.99630883   1.44219794   0.28651416
N     2.11907823  -0.55769789   0.45675957
C     3.22472161   0.01119950   1.18565553
H    -4.18608808   0.47037427   1.08622279
H    -3.37481067   1.61462592   0.00388804
H    -2.98220002   1.61970601   1.74130866
H    -1.27825483   1.19220350  -0.67790829
H    -0.21973309  -1.52744905  -0.10108009
H     0.34877848   0.24990510  -2.54397258
H     1.12542608  -1.29862367  -2.19028918
H    -0.60771237  -1.23843203  -2.56588979
H     1.96944955  -1.55589212   0.53926366
H     2.91976696   0.16385409   2.22438638
H     3.51346612   0.96994178   0.74647972
H     4.06430474  -0.68632034   1.14388819
22
Unnamed conformer 36
C     3.42386320   0.62594728   0.22431415
C     2.18314819   0.16294654  -0.49058283
O     1.98813538   0.39401578  -1.67953413
N     1.30025332  -0.53012389   0.30786449
C    -0.04085936  -0.82503551  -0.18383009
C    -0.54638870  -2.14174866   0.38841787
C    -0.97531277   0.32110492   0.25110025
O    -0.74222339   1.01998838   1.23705903
N    -2.12065773   0.44316934  -0.51119041
C    -3.04187635   1.52559346  -0.27224270
H     4.29752622   0.40356574  -0.39456460
H     3.54723111   0.11750481   1.18472589
H     3.35682244   1.70329051   0.39616028
H     1.34825862  -0.31876141   1.29921357
H    -0.02731663  -0.88027772  -1.27803377
H     0.12021410  -2.96611943   0.11367021
H    -0.59844626  -2.10595404   1.48266313
H    -1.54979271  -2.37439445   0.01668465
H    -2.11115784   0.03381573  -1.43743375
H    -3.23387152   1.62876695   0.79917186
H    -3.97424283   1.31133939  -0.79946876
H    -2.60330650   2.45136630  -0.65416433
22
Unnamed conformer 37
C     2.51949171  -1.64260985  -0.75290116
C     1.67101531  -0.70739876   0.06387118
O     1.55296731  -0.81593383   1.28108007
N     1.00513367   0.24320264  -0.67048203
C     0.09171051   1.20212369  -0.04378072
C     0.01571936   2.46980254  -0.88616601
C    -1.31120576   0.58068739   0.16315033
O    -2.34588190   1.10647700  -0.23971540
N    -1.30430860  -0.58388448   0.90565257
C    -2.52513398  -1.21458000   1.33168118
H     2.72981032  -1.22836146  -1.74300059
H     3.47185597  -1.80282915  -0.24008247
H     1.99555558  -2.59507160  -0.86667540
H     0.88131512   0.07324237  -1.66092578
H     0.48057471   1.46010648   0.94915465
H    -0.63567886   3.21488013  -0.41724236
H    -0.38148840   2.25999671  -1.88585854
H     1.00886114   2.91490926  -1.00984978
H    -0.43653829  -0.82064880   1.38813517
H    -3.26092148  -1.20311294   0.52319048
H    -2.30243369  -2.24439857   1.61977991
H    -2.92041974  -0.66659879   2.19098470
22
Unnamed conformer 38
C    -3.24197119   0.98343670   0.91581733
C    -1.96536815   0.22046127   1.14597759
O    -1.47801972   0.08200626   2.26327319
N    -1.40417804  -0.29490216  -0.00155655
C    -0.05317415  -0.84315303   0.03753232
C     0.09439448  -1.98238401  -0.96103499
C     0.93450005   0.28623503  -0.31600267
O     0.60533182   1.25686210  -0.99748185
N     2.22418588   0.07652672   0.13180896
C     3.23212028   1.09029691  -0.05182121
H    -3.65464540   0.78529952  -0.07744213
H    -3.98159329   0.67640719   1.66042566
H    -3.04168613   2.05356624   1.01277629
H    -1.63514179   0.19498462  -0.85970379
H     0.16646532  -1.20784649   1.04712354
H     1.10411291  -2.40512733  -0.93123923
H    -0.61911233  -2.78431760  -0.74367720
H    -0.09132936  -1.63984540  -1.98550458
H     2.35351659  -0.57809434   0.89360379
H     3.04388994   1.90495052   0.65257400
H     4.21080510   0.64726470   0.14585594
H     3.19689719   1.47737258  -1.07376341
22
Unnamed conformer 39
C     3.29757017   1.00820333  -0.73158320
C     1.93229412   0.57414162  -1.19248705
O     1.38645562   1.06536977  -2.17522999
N     1.36263978  -0.40891293  -0.41372708
C    -0.04354113  -0.75095807  -0.59532394
C    -0.28165508  -2.22463004  -0.29808081
C    -0.87732579   0.11330159   0.37104207
O    -0.40937223   0.56959202   1.41397149
N    -2.20003674   0.26502279   0.00332047
C    -3.07442576   1.11876601   0.76748604
H     3.72495772   0.29818924  -0.01789912
H     3.96497504   1.06737556  -1.59577071
H     3.21962540   1.98949339  -0.25651634
H     1.68436444  -0.44657392   0.54795076
H    -0.34567192  -0.52964765  -1.62501083
H     0.32387159  -2.85648553  -0.95651013
H    -0.01514254  -2.46981329   0.73643280
H    -1.33415172  -2.49108924  -0.44084165
H    -2.43615104   0.10437497  -0.96829169
H    -2.82169250   2.16107463   0.55539148
H    -4.10541640   0.91827838   0.46741771
H    -2.95217103   0.92492738   1.83655809
22
Unnamed conformer 40
C     2.33971450   1.18642480   1.60829534
C     1.60489708   0.68005557   0.39771344
O     1.54414571   1.31527649  -0.65134846
N     0.97641493  -0.52863240   0.57977634
C     0.14829275  -1.11554351  -0.47428418
C     0.03687430  -2.62119458  -0.27309185
C    -1.24202634  -0.44600165  -0.44418752
O    -2.22024808  -0.95010533   0.10130703
N    -1.26032785   0.80649592  -1.02746157
C    -2.42429890   1.64874302  -0.95464264
H     2.51693984   0.38550835   2.33165831
H     1.74845816   1.97356319   2.08313490
H     3.30849485   1.58723391   1.29771917
H     0.76956454  -0.81117812   1.53041005
H     0.61094546  -0.91617329  -1.44850575
H    -0.59703668  -3.07165002  -1.04414063
H     1.02429817  -3.09268008  -0.32157875
H    -0.39833321  -2.86620985   0.70249072
H    -0.35293298   1.24571809  -1.19416909
H    -3.32823206   1.06287943  -1.14145928
H    -2.32936709   2.43910667  -1.70254803
H    -2.47623711   2.08836336   0.04491246
22
Unnamed conformer 41
C    -2.61974747   1.20771814   1.33581149
C    -1.66536539   0.21991174   0.72340514
O    -1.40963266  -0.86159370   1.24519021
N    -1.07110748   0.64932761  -0.43796284
C    -0.07372327  -0.16238435  -1.14008370
C    -0.07187006   0.18970619  -2.62279254
C     1.33187013   0.02193605  -0.51757981
O     2.32274032   0.33280267  -1.17397013
N     1.38902723  -0.26511118   0.83220581
C     2.63890134  -0.30235373   1.54362624
H    -3.50936622   0.67692179   1.68579189
H    -2.93519809   1.96104114   0.60839943
H    -2.13029868   1.70470901   2.17728436
H    -1.06564819   1.64432845  -0.62541962
H    -0.34047781  -1.22069644  -1.02824198
H    -1.06417842   0.03620040  -3.06040965
H     0.20329052   1.23851990  -2.78233645
H     0.64308455  -0.43091194  -3.17326734
H     0.57850067  -0.73137957   1.24148841
H     3.14090041  -1.24714312   1.31933183
H     2.43178807  -0.23810924   2.61418751
H     3.27651049   0.53046463   1.23534177
22
Unnamed conformer 42
C     2.70536484   1.08810137   1.05352228
C     1.74932334   0.48234173   0.06322548
O     1.65664417   0.88156693  -1.09407378
N     0.95927195  -0.51771260   0.57510822
C    -0.06583905  -1.18162433  -0.23420893
C    -0.31318838  -2.58821645   0.29750061
C    -1.37419409  -0.35424555  -0.26303502
O    -2.47183301  -0.82097397   0.03135078
N    -1.20959990   0.93883091  -0.71959553
C    -2.33436818   1.80201801  -0.96350837
H     2.30886018   2.04825648   1.39341003
H     2.85167782   0.43417275   1.91787320
H     3.67475453   1.23795190   0.57032343
H     0.85028653  -0.56511447   1.58062833
H     0.29449406  -1.25263388  -1.26804108
H    -0.68812113  -2.56416621   1.32707561
H     0.61253107  -3.17369426   0.29452722
H    -1.05201466  -3.11570669  -0.31506714
H    -0.31437469   1.16643688  -1.15392184
H    -2.79033127   1.52136648  -1.91654057
H    -1.97716688   2.83306300  -1.01329275
H    -3.07217724   1.69998198  -0.16326017
22
Unnamed conformer 43
C    -3.38229761  -0.70109968  -0.48318413
C    -1.93467953  -0.70010461  -0.89454897
O    -1.42101891  -1.64574262  -1.48357260
N    -1.25264847   0.44507582  -0.54703781
C     0.20064293   0.48466932  -0.66407051
C     0.67512851   1.89059705  -1.00317455
C     0.80381532   0.04610248   0.68494674
O     0.19550294   0.17069764   1.74763968
N     2.10015593  -0.42372095   0.60389902
C     2.75827918  -0.94891489   1.77369684
H    -3.72343146   0.30209169  -0.21233719
H    -3.50997240  -1.36594786   0.37493566
H    -3.99170466  -1.05491038  -1.31936060
H    -1.62485776   0.95118974   0.24986878
H     0.52565418  -0.21185768  -1.44492558
H     1.76517670   1.92640307  -1.10137122
H     0.23499117   2.23226653  -1.94602828
H     0.38899077   2.60581004  -0.22345747
H     2.42393215  -0.74788059  -0.29924888
H     2.33997225  -1.93324887   2.00034399
H     2.60252106  -0.28222279   2.62616178
H     3.82584769  -1.03925248   1.56082531
22
Unnamed conformer 44
C     2.49819576   1.71753878   0.64956681
C     1.65870379   0.72988405  -0.11295515
O     1.52936087   0.77648231  -1.33296054
N     1.01419693  -0.19389137   0.67289805
C     0.11164633  -1.19690195   0.10193542
C     0.06295860  -2.42263423   1.00615163
C    -1.30280060  -0.60879518  -0.12311581
O    -2.32556816  -1.13050918   0.31400125
N    -1.32072821   0.51778495  -0.92191505
C    -2.55498524   1.10725410  -1.36781417
H     2.72297884   1.35593570   1.65696327
H     3.44378275   1.86742184   0.12131520
H     1.95971655   2.66600187   0.72094584
H     0.89539285   0.02262247   1.65483736
H     0.49686059  -1.49722260  -0.88046446
H     1.06416909  -2.84525905   1.14294768
H    -0.32976042  -2.17022696   1.99773586
H    -0.57985738  -3.20015532   0.58000970
H    -0.46075039   0.74428751  -1.42292026
H    -2.35138100   2.12506350  -1.70801089
H    -3.28411769   1.12388096  -0.55340735
H    -2.94801386   0.51143780  -2.19574440
22
Unnamed conformer 45
C     3.63546053   0.57593578  -0.15512748
C     2.41989588  -0.13737760  -0.68140609
O     2.47091636  -0.88857094  -1.65015205
N     1.26423281   0.13102340   0.00334777
C    -0.02400769  -0.41880337  -0.39815867
C    -0.19590061  -1.84501141   0.11096270
C    -1.12903667   0.49848103   0.16048980
O    -0.88644092   1.40495078   0.95746191
N    -2.39958736   0.21493951  -0.29688979
C    -3.51988641   1.04427418   0.06956955
H     4.43805261  -0.15099770  -0.00327626
H     3.95070504   1.32872873  -0.88234770
H     3.43390058   1.06917943   0.79978901
H     1.24229864   0.85135728   0.72032613
H    -0.08025345  -0.39985554  -1.49297895
H    -0.17020767  -1.87691405   1.20623074
H    -1.15249207  -2.27005219  -0.20985296
H     0.60243030  -2.49683048  -0.25876483
H    -2.49918560  -0.39077325  -1.10210432
H    -3.47164847   1.30047066   1.13133839
H    -3.48793091   1.95929599  -0.52773293
H    -4.44131493   0.49654974  -0.14066710
22
Unnamed conformer 46
C    -2.41283652   1.93889332  -0.24410637
C    -1.54577916   0.85992210   0.34384054
O    -1.20849303   0.85404778   1.52431364
N    -1.12633077  -0.08651357  -0.55873343
C    -0.23107803  -1.17943915  -0.17058236
C    -0.44287552  -2.37344601  -1.09355950
C     1.24681985  -0.71801536  -0.17975720
O     2.13160000  -1.30708771  -0.79576742
N     1.49756268   0.37533664   0.62603124
C     2.83601162   0.84543712   0.86530209
H    -2.83536280   1.63161639  -1.20493275
H    -1.81362655   2.84156887  -0.38820118
H    -3.23877268   2.14820528   0.44121687
H    -1.15683877   0.15283661  -1.54208350
H    -0.46934652  -1.48030680   0.85723000
H    -1.48574650  -2.70714303  -1.06501920
H    -0.20296426  -2.12060655  -2.13264212
H     0.19253938  -3.21541885  -0.79914587
H     0.75769522   0.65476556   1.27131206
H     3.30994354   0.19131135   1.60181101
H     3.41560861   0.82967980  -0.06151535
H     2.78227020   1.86435621   1.25522719
22
Unnamed conformer 47
C     3.43340977  -1.11878375  -0.60023755
C     2.42717226  -0.50102903   0.33209740
O     2.69383096  -0.23755916   1.50036123
N     1.19956074  -0.27086656  -0.23046993
C     0.08067164   0.26385405   0.53454147
C     0.17404744   1.77999895   0.65866155
C    -1.22311131  -0.14764540  -0.17637757
O    -1.22405049  -0.66886743  -1.29173934
N    -2.37601300   0.12256375   0.53192872
C    -3.66427266  -0.28727232   0.03234842
H     4.35721299  -0.53477003  -0.56612912
H     3.07386376  -1.13238897  -1.63286848
H     3.63256821  -2.14530007  -0.28160142
H     0.98378260  -0.61570028  -1.16210690
H     0.09199651  -0.19735863   1.52918131
H     1.11156277   2.08157224   1.13722003
H     0.13551866   2.25794423  -0.32692241
H    -0.65188203   2.18268607   1.25391943
H    -2.29687755   0.34782819   1.51588523
H    -3.78336052  -1.35937233   0.20976695
H    -4.43767410   0.26549180   0.57043398
H    -3.73795665  -0.08502532  -1.03955956
22
Unnamed conformer 48
C     2.96250643  -1.20524361   0.33930416
C     2.04124944  -0.04380449   0.59867176
O     2.33195406   0.85771379   1.37626958
N     0.86283124  -0.08913827  -0.10731314
C    -0.08225416   1.03177898  -0.08943500
C     0.25759732   2.04375759  -1.17573099
C    -1.51909573   0.49232185  -0.23739874
O    -2.39109011   1.04933593  -0.89690191
N    -1.76301061  -0.62385534   0.54081420
C    -3.03869072  -1.29008003   0.54078549
H     2.45602970  -2.00984577  -0.20102822
H     3.81445534  -0.86049483  -0.25241016
H     3.31310764  -1.60358630   1.29542837
H     0.77745984  -0.74726872  -0.87230520
H    -0.02602349   1.52649782   0.88787780
H    -0.43049250   2.89523085  -1.14900457
H     0.18956708   1.59106412  -2.17143410
H     1.27641761   2.42606838  -1.05268897
H    -0.97170201  -1.05011056   1.00991418
H    -3.12238326  -1.88135329   1.45545013
H    -3.08701504  -1.94830722  -0.33051195
H    -3.85141807  -0.56068088   0.49164727
22
Unnamed conformer 49
C    -3.40529378  -0.71008249   0.25434939
C    -2.12498214  -0.50741950  -0.51020920
O    -1.81930858  -1.20546696  -1.47162535
N    -1.34051953   0.51821940  -0.03057138
C     0.02652309   0.67046236  -0.51568592
C     0.43216642   2.13743326  -0.53021582
C     0.96092686  -0.11566203   0.42500727
O     0.66887533  -0.34629036   1.59820786
N     2.17173965  -0.46828627  -0.13836751
C     3.10763416  -1.28067576   0.59750351
H    -3.31413744  -1.60597761   0.87382952
H    -4.22952494  -0.83211396  -0.45381833
H    -3.62995912   0.14690306   0.89561798
H    -1.46656118   0.74325580   0.95086838
H     0.10590041   0.25657625  -1.52707837
H    -0.23772925   2.71935423  -1.17211955
H     1.45486577   2.26054615  -0.90177869
H     0.39042649   2.57159679   0.47533011
H     2.22766118  -0.49092997  -1.14928171
H     4.07376621  -1.24492171   0.08908481
H     3.20964169  -0.90725247   1.62004187
H     2.73788871  -2.30926821   0.62091114
22
Unnamed conformer 50
C    -2.40823867   1.79714256  -0.76389285
C    -1.66585687   0.72203662  -0.01913485
O    -1.69625526   0.62513321   1.20438366
N    -0.91656456  -0.10770933  -0.81688081
C    -0.08667929  -1.17610436  -0.25434385
C     0.08993157  -2.28821149  -1.28119548
C     1.28126657  -0.62710579   0.21947257
O     2.35675472  -1.10059802  -0.13891237
N     1.18527292   0.39841069   1.13962741
C     2.34590274   0.92410693   1.80766342
H    -3.41564444   1.89028113  -0.34903216
H    -2.49724420   1.55695862  -1.82715247
H    -1.87359963   2.74407027  -0.65377772
H    -0.67337644   0.22117332  -1.74310530
H    -0.59333327  -1.58661968   0.62796519
H     0.67903292  -3.11414361  -0.86870890
H     0.60565346  -1.92425732  -2.17715635
H    -0.88122576  -2.68573622  -1.59516404
H     0.26557079   0.57024349   1.54766272
H     2.09071317   1.89649206   2.23482848
H     2.63360316   0.23328221   2.60448578
H     3.17431635   1.03115471   1.10236789
22
Unnamed conformer 51
C     2.34298823  -2.03050779  -0.03070325
C     1.65205617  -0.71767033   0.21570924
O     1.74015467  -0.11514694   1.28178477
N     0.87956518  -0.27712056  -0.83094705
C     0.09274866   0.95573089  -0.74364144
C    -0.11397823   1.53658754  -2.13729381
C    -1.26014571   0.70332671  -0.03431265
O    -2.34365784   1.01705520  -0.52102180
N    -1.13753350   0.15863241   1.22896054
C    -2.27406939   0.00233000   2.09703128
H     2.38662151  -2.26398360  -1.09827881
H     3.36688234  -1.97347090   0.34882154
H     1.79966983  -2.82447147   0.48800940
H     0.58907315  -0.95749570  -1.52225050
H     0.64561287   1.68282918  -0.13589103
H    -0.67581580   0.84622773  -2.77676229
H    -0.67088087   2.47847437  -2.09192903
H     0.84764143   1.73227087  -2.62385738
H    -0.20275800   0.14437621   1.63867197
H    -2.51428459   0.97377485   2.53695004
H    -2.01431523  -0.70730019   2.88575034
H    -3.13557489  -0.36444848   1.53271553
22
Unnamed conformer 52
C     3.34670121   0.75248955   0.66693839
C     2.18185012   0.44644660  -0.23543658
O     2.02167428   1.01230323  -1.31208801
N     1.32467790  -0.51173067   0.25905441
C     0.03595994  -0.73187360  -0.38752325
C    -0.38369986  -2.19012245  -0.26854232
C    -1.00882440   0.16554646   0.30462464
O    -0.87879053   0.54793441   1.46727431
N    -2.12513425   0.43652059  -0.46233492
C    -3.14270217   1.33336690   0.02511140
H     3.18292830   1.72085556   1.14666642
H     3.46877232  -0.01289642   1.43856516
H     4.26257715   0.78518963   0.07040386
H     1.31063760  -0.60680050   1.26926099
H     0.10292292  -0.45322742  -1.44506243
H    -0.48740089  -2.48980419   0.78064743
H    -1.34673387  -2.36507569  -0.75954755
H     0.36058293  -2.84745674  -0.73048135
H    -2.04033696   0.32740888  -1.46557528
H    -2.76579332   2.35794980  -0.03348586
H    -4.02959394   1.22750368  -0.60369230
H    -3.39027447   1.09547241   1.06316193
22
Unnamed conformer 53
C    -3.43483872   0.47229813   0.26232862
C    -2.16677196  -0.33214864   0.36078051
O    -1.93394242  -1.07331206   1.31025152
N    -1.30515687  -0.15472860  -0.69917722
C     0.05426693  -0.67741258  -0.62115278
C     0.55183274  -1.09069513  -1.99897254
C     0.96345901   0.43022428  -0.05324755
O     0.69122349   1.62522911  -0.16609432
N     2.13266349  -0.03022992   0.52011539
C     3.03577784   0.88721599   1.16823476
H    -3.38308674   1.30908654   0.96361340
H    -4.28521576  -0.16807611   0.51238929
H    -3.58594513   0.86153445  -0.74850573
H    -1.38831472   0.73116038  -1.18706783
H     0.07799901  -1.54079994   0.05302529
H     0.56676345  -0.23879824  -2.68847364
H     1.56917210  -1.49252164  -1.94714592
H    -0.09788356  -1.85842552  -2.43243741
H     2.15790383  -0.99824952   0.81657491
H     3.19073234   1.77030558   0.54247325
H     2.60217423   1.19063075   2.12489079
H     3.98718740   0.37771270   1.33676938
22
Unnamed conformer 54
C     2.49719353   1.56429661   0.81891862
C     1.57033857   0.85249428  -0.12773362
O     1.20962036   1.34444057  -1.19337810
N     1.13205581  -0.37092104   0.31973268
C     0.15829856  -1.15036018  -0.44549012
C     0.25727273  -2.62304984  -0.06963247
C    -1.25427888  -0.59740904  -0.16080273
O    -2.02645242  -1.10704187   0.64704900
N    -1.53670715   0.56662487  -0.84968057
C    -2.73905973   1.31406540  -0.59435392
H     2.91611772   0.87722361   1.55956973
H     3.32364366   2.00038238   0.25107350
H     1.94518742   2.35406094   1.33486844
H     1.17359591  -0.54817720   1.31631548
H     0.36832981  -1.03753785  -1.51603309
H     1.25403775  -3.01516856  -0.29845039
H     0.07905607  -2.77860601   1.00052727
H    -0.48002310  -3.21638988  -0.62064243
H    -0.74188200   1.05374765  -1.26805154
H    -3.59340629   0.63799705  -0.50350118
H    -2.89861609   2.00975479  -1.42116002
H    -2.61432223   1.86957333   0.33887967
22
Unnamed conformer 55
C     3.33712241  -1.01078765  -0.22483622
C     2.22620734  -0.01438189  -0.03024930
O     2.20010356   0.75912783   0.92160662
N     1.25522457  -0.05778527  -1.00630132
C     0.00812026   0.67488147  -0.81855401
C    -0.54026963   1.15515163  -2.15473149
C    -1.00959694  -0.27115901  -0.15127222
O    -0.94088703  -1.49480351  -0.26465589
N    -2.03476248   0.37229405   0.51416478
C    -3.00921673  -0.38654199   1.25712426
H     3.33293619  -1.42414700  -1.23737839
H     3.21736066  -1.82517500   0.49427679
H     4.29705069  -0.51260259  -0.06328251
H     1.15297909  -0.94805296  -1.48245289
H     0.18206808   1.53441379  -0.16169518
H    -0.75179971   0.31303791  -2.82365811
H    -1.47246219   1.71394981  -2.02097250
H     0.18074287   1.80757299  -2.65863693
H    -1.87988403   1.33347784   0.79295941
H    -2.54440537  -0.75026329   2.17740731
H    -3.35759789  -1.23686619   0.66465940
H    -3.84903372   0.26865900   1.49919306
22
Unnamed conformer 56
C    -3.58505269   0.79433979   0.36395624
C    -2.41307183  -0.08434296   0.70711795
O    -2.49904976  -1.00234742   1.51658520
N    -1.25398688   0.23439987   0.05030111
C    -0.00033456  -0.46500962   0.29982808
C     0.06218170  -1.77530225  -0.47608998
C     1.15590308   0.46829440  -0.10839577
O     0.96298651   1.52456571  -0.71070663
N     2.41154228   0.02010426   0.24711491
C     3.58031948   0.82944950   0.01030928
H    -3.36672173   1.44726977  -0.48563017
H    -3.83373126   1.41269946   1.23039533
H    -4.43912114   0.16390161   0.10173429
H    -1.19464224   1.07581932  -0.51707015
H     0.07681323  -0.65997474   1.37602120
H     0.99232728  -2.31541459  -0.27174076
H    -0.77299242  -2.43243060  -0.21233453
H     0.01458693  -1.59493062  -1.55613310
H     2.48301591  -0.73389074   0.91909876
H     3.62321222   1.61310376   0.77129716
H     4.46481660   0.19267868   0.08392568
H     3.53099931   1.28701741  -0.98141447
22
Unnamed conformer 57
C    -2.91117108   0.76914768  -0.69552559
C    -1.75447260   0.43817069   0.20677796
O    -1.46949121   1.11555946   1.19026322
N    -1.01942156  -0.65245665  -0.18888171
C     0.17443068  -1.08460158   0.54227669
C     0.39624461  -2.57772784   0.33306355
C     1.41675473  -0.26682149   0.11210858
O     2.46433002  -0.78436463  -0.26742381
N     1.26840385   1.09818321   0.26157468
C     2.36889305   2.00321356   0.06274143
H    -3.17972514  -0.08171075  -1.32802100
H    -2.63952993   1.61627505  -1.33052500
H    -3.77994894   1.02823685  -0.08417411
H    -1.09790960  -0.94973216  -1.15359073
H     0.01831476  -0.89671053   1.61186359
H     0.57010057  -2.80989856  -0.72384170
H     1.26490013  -2.92927042   0.89981269
H    -0.47838082  -3.15055247   0.65963723
H     0.45888590   1.42084291   0.79302900
H     1.97022980   3.01113784  -0.07246650
H     3.01000878   1.97389046   0.94764106
H     2.94855399   1.70918936  -0.81630017
22
Unnamed conformer 58
C    -3.01257227   0.96743904  -0.57984755
C    -2.10095108   0.26438890   0.38939176
O    -2.44634101   0.00161824   1.53569427
N    -0.86485384  -0.04840669  -0.12114071
C     0.10002124  -0.84919620   0.63640110
C    -0.13335564  -2.33750891   0.41203049
C     1.53781072  -0.43680931   0.25723983
O     2.48893194  -1.21244113   0.25865799
N     1.67865544   0.92241813   0.03530741
C     2.97830878   1.51879736  -0.13435937
H    -3.42738128   1.85734008  -0.09846266
H    -3.82165673   0.28993073  -0.86485792
H    -2.47976324   1.28269085  -1.48123588
H    -0.70043673   0.04899333  -1.11575747
H    -0.02204717  -0.62625569   1.70340544
H    -1.15175184  -2.62389427   0.69508030
H     0.56502673  -2.93933560   1.00298770
H     0.00692227  -2.60314222  -0.64188075
H     0.90192607   1.50985474   0.31814693
H     3.59682057   0.89914067  -0.78913322
H     3.45596156   1.60233672   0.84538363
H     2.85072550   2.51204124  -0.57056095
22
Unnamed conformer 59
C     3.32836263  -0.46441701  -0.93342938
C     2.06914148  -0.84342505  -0.20162628
O     1.69896510  -2.00825559  -0.09595095
N     1.38160847   0.22753303   0.32536063
C     0.03232833   0.03555990   0.84488792
C    -0.23972200   0.98755530   2.00093890
C    -0.96612962   0.30939669  -0.29708436
O    -0.69241691   1.04302243  -1.24669360
N    -2.20548261  -0.27498857  -0.12301325
C    -3.20841984  -0.17477832  -1.15328330
H     4.13611229  -1.13458431  -0.62656110
H     3.15888368  -0.55769218  -2.00919426
H     3.63115698   0.56174636  -0.70664940
H     1.53039142   1.11582567  -0.14213372
H    -0.08706562  -0.99933498   1.18438021
H     0.47784426   0.82786289   2.81274512
H    -0.15600600   2.03321135   1.68320066
H    -1.24833026   0.84321640   2.40219363
H    -2.26631502  -1.06056931   0.51318610
H    -2.93266286  -0.83730281  -1.97807541
H    -3.27327346   0.85367469  -1.51867801
H    -4.16897042  -0.48325658  -0.73452016
22
Unnamed conformer 60
C    -3.34936708   0.60399811   1.00257455
C    -2.17118087  -0.29013283   0.72467558
O    -1.98434241  -1.33610470   1.33791566
N    -1.33432098   0.17478863  -0.26572054
C    -0.03616838  -0.45759015  -0.47118874
C     0.36477815  -0.39903415  -1.93835409
C     1.00535739   0.29469904   0.38045177
O     0.85768197   1.47133109   0.71001656
N     2.13892755  -0.43818058   0.67321352
C     3.15710387   0.10913948   1.53410796
H    -4.25338697  -0.00706939   1.07395706
H    -3.18384706   1.13124875   1.94560385
H    -3.49455874   1.33675609   0.20375685
H    -1.34043893   1.17955013  -0.40773585
H    -0.08000739  -1.50204093  -0.14298406
H    -0.37797836  -0.90468186  -2.56450480
H     0.44528022   0.63677164  -2.28761901
H     1.33488867  -0.87991460  -2.10196799
H     2.07187845  -1.44680446   0.61180942
H     3.38233948   1.13933643   1.24531807
H     4.05447271  -0.50753744   1.44682609
H     2.79288871   0.09147171   2.56478680
22
Unnamed conformer 61
C     2.26113313  -1.92110816  -0.89970944
C     1.64721118  -0.73476172  -0.20881829
O     1.89694155  -0.44854905   0.95867018
N     0.75149297  -0.03127374  -0.97635332
C     0.01864835   1.12099795  -0.44547279
C    -0.36035240   2.06123478  -1.58332599
C    -1.23110433   0.66795097   0.34828062
O    -2.36180550   1.09174750   0.12195992
N    -0.95220718  -0.20250754   1.38370470
C    -1.96334329  -0.60456364   2.32479229
H     1.77189003  -2.83323342  -0.54856156
H     3.32847623  -1.95965051  -0.66530562
H     2.15193686  -1.85072356  -1.98564450
H     0.35039837  -0.49786437  -1.78047560
H     0.66942939   1.65841644   0.25549521
H    -0.87936862   2.94792807  -1.20418682
H    -1.02333180   1.56777470  -2.30314059
H     0.53081703   2.39404279  -2.12628506
H     0.02903014  -0.31886732   1.63964493
H    -1.61809825  -1.50122277   2.84434251
H    -2.11402198   0.20525610   3.04341916
H    -2.90377188  -0.81102349   1.80697004
22
Unnamed conformer 62
C    -2.72152491   1.28205296  -0.62817207
C    -1.67885409   0.67549961   0.26992516
O    -1.35570070   1.18049829   1.34130787
N    -1.08817158  -0.45881585  -0.23081262
C    -0.01362620  -1.14994369   0.48634876
C     0.00102254  -2.62392251   0.09960622
C     1.35679446  -0.48385675   0.21166054
O     2.33833950  -1.10485009  -0.18864683
N     1.39956749   0.86038891   0.52591939
C     2.62923508   1.60605138   0.48596766
H    -2.29387416   2.14779360  -1.14027019
H    -3.07377965   0.56266693  -1.37284091
H    -3.57726222   1.59488535  -0.02360503
H    -1.15332305  -0.62417258  -1.22761238
H    -0.20209309  -1.06896558   1.56413082
H    -0.96472889  -3.09282149   0.31687653
H     0.19986707  -2.75254192  -0.97048499
H     0.77548748  -3.16733861   0.65119703
H     0.61617775   1.23615151   1.06161966
H     2.38935597   2.67144610   0.46323864
H     3.20736648   1.37544636   1.38458980
H     3.20972472   1.33434808  -0.39968447
22
Unnamed conformer 63
C    -2.54761202   1.57684318  -0.70122709
C    -1.65526510   0.66833230   0.09889793
O    -1.47397168   0.81515631   1.30442743
N    -1.03178239  -0.30897349  -0.63948313
C    -0.06523914  -1.21923279  -0.02424737
C     0.04877215  -2.49472163  -0.84887347
C     1.29678676  -0.50077677   0.08008883
O     2.20730851  -0.66348262  -0.72804469
N     1.36486669   0.39602865   1.12908704
C     2.49365695   1.27291309   1.29162185
H    -3.47663582   1.74363905  -0.14919809
H    -2.03681589   2.52955227  -0.86271255
H    -2.79981091   1.13664588  -1.67011945
H    -0.94199316  -0.15748791  -1.63713712
H    -0.40409740  -1.47404767   0.98726069
H    -0.91519087  -3.01253515  -0.89684331
H     0.36112216  -2.28271424  -1.87779971
H     0.78411301  -3.17776730  -0.41070505
H     0.47770181   0.66156292   1.56094640
H     2.47929063   1.67414633   2.30742491
H     2.40964541   2.08915141   0.56928412
H     3.42515028   0.72776818   1.11735182
22
Unnamed conformer 64
C     3.22537413   1.29516975  -0.26573050
C     1.96152715   0.69150979  -0.81628116
O     1.47658477   1.04963616  -1.88473988
N     1.40884253  -0.28294866  -0.01482054
C     0.06705514  -0.77849215  -0.30006166
C    -0.06177536  -2.24220176   0.09707560
C    -0.93910768   0.06689785   0.50551761
O    -0.62600477   0.64533522   1.54583487
N    -2.22514431   0.05565639   0.00174679
C    -3.24965437   0.87131159   0.60379985
H     3.64123782   0.68778090   0.54313367
H     3.96997381   1.35663335  -1.06419424
H     3.00747806   2.29639528   0.11474573
H     1.63165372  -0.21543451   0.97287824
H    -0.14649773  -0.66693212  -1.36892405
H    -1.06439502  -2.62397920  -0.12231022
H     0.66484709  -2.85706131  -0.44458892
H     0.11824323  -2.38069530   1.16935145
H    -2.34364253  -0.20063164  -0.97080759
H    -4.22089884   0.54534541   0.22484196
H    -3.22085771   0.77172176   1.69223342
H    -3.07483913   1.91498318   0.32911265
22
Unnamed conformer 65
C     3.54401988   0.93558527   0.33779869
C     2.46701559   0.10455208  -0.30471824
O     2.69344824  -0.63791350  -1.25489499
N     1.22510565   0.25644890   0.25301913
C     0.04690508  -0.41914393  -0.27470983
C    -0.03509535  -1.85532502   0.22875984
C    -1.19603583   0.38344023   0.15603864
O    -1.12933282   1.30966231   0.96434966
N    -2.37728135  -0.02542875  -0.42823535
C    -3.60648585   0.68809410  -0.18927896
H     3.19566529   1.40632020   1.26129225
H     3.85743620   1.71602515  -0.36049285
H     4.39442791   0.29233962   0.58005498
H     1.05688333   0.97108400   0.95616675
H     0.10403351  -0.40602620  -1.36956980
H    -0.12123145  -1.88437716   1.32101813
H    -0.90593440  -2.37367565  -0.18548772
H     0.85824898  -2.42432984  -0.04885408
H    -2.33144033  -0.63813801  -1.23301102
H    -3.60305638   1.60165849  -0.78964969
H    -3.69534782   0.94797106   0.86896751
H    -4.44194808   0.05117666  -0.48856305
22
Unnamed conformer 66
C    -2.61555364   1.65517545   0.17923900
C    -1.59472435   0.63210754   0.59503786
O    -1.17090128   0.55171329   1.74448301
N    -1.14416864  -0.16827622  -0.42608890
C    -0.10891977  -1.18266429  -0.21184015
C    -0.25874319  -2.29878427  -1.23859606
C     1.30525740  -0.55482263  -0.26748667
O     2.19984902  -0.97569380  -0.99678963
N     1.49579085   0.47755683   0.62999536
C     2.78949746   1.07396909   0.83076031
H    -3.07323004   1.39509057  -0.77941604
H    -3.40547294   1.70061074   0.93396694
H    -2.13045177   2.63072596   0.09198213
H    -1.27440564   0.15941904  -1.37521994
H    -0.23507891  -1.60651754   0.79221367
H    -0.12659612  -1.92113685  -2.25893836
H     0.48465242  -3.08607947  -1.07464986
H    -1.25410943  -2.75194653  -1.17826960
H     0.78064784   0.60624060   1.34685171
H     2.65497367   2.03762856   1.32713505
H     3.29600837   1.21443798  -0.12782556
H     3.38567868   0.41124595   1.46345571
22
Unnamed conformer 67
C     3.33720493  -0.43892268  -0.82366631
C     2.18045519  -0.52628024   0.13504085
O     2.02346676  -1.48379042   0.88574509
N     1.32667812   0.55351174   0.08521048
C     0.04379093   0.49332466   0.77651190
C    -0.36657527   1.87328953   1.27053425
C    -1.01168870  -0.03692859  -0.21384151
O    -0.89194979   0.09142624  -1.43206585
N    -2.12476869  -0.59496665   0.38402899
C    -3.15168187  -1.20885931  -0.41969170
H     3.45946833   0.57538263  -1.21400072
H     3.16360671  -1.12426546  -1.65725023
H     4.25673966  -0.71699673  -0.30128551
H     1.30664843   1.05510922  -0.79669117
H     0.11578641  -0.19527925   1.62572243
H     0.38524570   2.28025702   1.95505984
H    -0.47510616   2.57777567   0.43789807
H    -1.32512977   1.83462164   1.79855717
H    -2.03262021  -0.90779184   1.34279710
H    -2.78146950  -2.16846309  -0.79032191
H    -4.03366444  -1.36739251   0.20493007
H    -3.40443678  -0.56476159  -1.26626632
22
Unnamed conformer 68
C    -3.46673281   1.22128494   0.40957152
C    -2.46897919   0.09587261   0.44678947
O    -2.77523608  -1.03763609   0.80275829
N    -1.20280755   0.44765542   0.06002063
C    -0.08897571  -0.49145745   0.09425758
C    -0.09516084  -1.39430149  -1.13399272
C     1.21710628   0.32310782   0.16642989
O     1.23773036   1.54155765  -0.00977232
N     2.34764483  -0.41826915   0.43736193
C     3.65321374   0.19091159   0.46519663
H    -4.34721252   0.89915505  -0.15312341
H    -3.05597209   2.11118022  -0.07533018
H    -3.75460527   1.47738971   1.43254874
H    -0.96503946   1.42121893  -0.11065237
H    -0.17333744  -1.09363546   1.00656447
H    -1.03361734  -1.95315235  -1.21065169
H     0.72484408  -2.11876176  -1.10201740
H     0.01769714  -0.80769574  -2.05296197
H     2.28581760  -1.42800583   0.46860405
H     4.00319389   0.31172568  -0.56331162
H     3.60784221   1.16871483   0.95208179
H     4.33258618  -0.46685913   1.01211117
22
Unnamed conformer 69
C     3.57099397  -0.01984210   0.68292125
C     2.45005021   0.43265928  -0.21268491
O     2.61678278   1.26366874  -1.09980755
N     1.24016975  -0.15179805   0.05393004
C     0.02639827   0.20720012  -0.66784536
C    -0.05329107  -0.51934195  -2.00523371
C    -1.18045157  -0.14961813   0.22141385
O    -1.05860692  -0.79802693   1.26084816
N    -2.39582312   0.30699761  -0.24577438
C    -3.59997060   0.12599263   0.52521522
H     4.42202748  -0.32026088   0.06555868
H     3.27681083  -0.87298509   1.30048481
H     3.86159184   0.80652428   1.33683124
H     1.11877070  -0.74079090   0.87354515
H     0.02891441   1.29193529  -0.82752535
H    -0.08515630  -1.60537800  -1.86101022
H     0.81583642  -0.29319107  -2.63163001
H    -0.95193506  -0.23312669  -2.56126399
H    -2.40008646   1.00654639  -0.97775199
H    -3.61195247   0.86217998   1.33326269
H    -3.63163882  -0.88113902   0.94948033
H    -4.45943424   0.28179449  -0.13074233
22
Unnamed conformer 70
C    -3.64408663  -0.57873139   0.01996550
C    -2.36688619  -0.46875745  -0.76750820
O    -2.31627154  -0.71461082  -1.96848414
N    -1.27834469  -0.08205693  -0.03125311
C     0.05671764   0.01513206  -0.60735114
C     0.23530678   1.32950670  -1.35854395
C     1.07879924  -0.10112125   0.53999880
O     0.74131694  -0.05147444   1.72310205
N     2.38752882  -0.25922475   0.13578212
C     3.46496306  -0.31013622   1.09125500
H    -4.42806227  -0.01284631  -0.49071406
H    -3.53298244  -0.17625863   1.03062856
H    -3.93204982  -1.63103436   0.08836775
H    -1.33803263  -0.00593560   0.98074002
H     0.20123777  -0.83206045  -1.28809994
H    -0.50806612   1.43494772  -2.15551951
H     0.12207462   2.18580529  -0.68380121
H     1.22800384   1.39776133  -1.81479689
H     2.61762717  -0.18761267  -0.84721992
H     3.17195984  -0.89680549   1.96600303
H     3.70474571   0.71053110   1.40053268
H     4.33450090  -0.76501741   0.61134702
22
Unnamed conformer 71
C    -3.45517847   0.37863732   0.36212310
C    -2.19583546  -0.43400351   0.22614228
O    -2.03377140  -1.49446906   0.82126883
N    -1.25648822   0.12185120  -0.61410875
C     0.09463919  -0.42622223  -0.65139864
C     0.69705229  -0.27869885  -2.04139679
C     0.95447530   0.34434858   0.36982984
O     0.68795099   1.49461986   0.71728487
N     2.07798435  -0.33583238   0.79747967
C     2.92622901   0.22857076   1.81694647
H    -3.45962851   0.87109325   1.33791119
H    -4.32016667  -0.28511955   0.27862220
H    -3.52997325   1.13749134  -0.42188739
H    -1.30494464   1.13006511  -0.71855832
H     0.06957832  -1.48527577  -0.37158964
H     0.08464104  -0.79663161  -2.78713882
H     0.76186111   0.77475803  -2.33701661
H     1.70871892  -0.69608041  -2.07951561
H     2.08353326  -1.34281535   0.69003947
H     2.42002579   0.14367565   2.78225109
H     3.12570481   1.28187251   1.60199996
H     3.86359222  -0.33183489   1.83872503
22
Unnamed conformer 72
C     2.60929835   1.37033923   1.08333148
C     1.69334245   0.65521744   0.12872488
O     1.53125423   1.02303201  -1.03134084
N     1.02082261  -0.40950522   0.67681082
C     0.04666028  -1.18620350  -0.09414494
C    -0.04488540  -2.60097382   0.46481948
C    -1.33820526  -0.49388845  -0.09915835
O    -2.37565436  -1.06243303   0.23215147
N    -1.31567162   0.80100922  -0.57907132
C    -2.52708739   1.54349378  -0.80463710
H     3.54599433   1.60758718   0.57150667
H     2.84262892   0.74937958   1.95287088
H     2.12765092   2.29198502   1.41981609
H     0.94320507  -0.45003449   1.68553762
H     0.38539872  -1.23894319  -1.13633788
H     0.93437034  -3.09129459   0.44500913
H    -0.74285041  -3.21000977  -0.11936302
H    -0.39355505  -2.59648090   1.50385124
H    -0.45925605   1.10906209  -1.04116183
H    -2.97722638   1.20226941  -1.74052083
H    -3.23000503   1.38242576   0.01702849
H    -2.27622929   2.60396625  -0.87942301
22
Unnamed conformer 73
C    -2.71932579   1.13403913  -1.01384642
C    -1.61110304   0.83730768  -0.04150841
O    -1.13663430   1.69311190   0.69997046
N    -1.14518238  -0.45384151  -0.08806834
C    -0.03133548  -0.90280299   0.75121973
C    -0.14106550  -2.40287178   0.99647619
C     1.33021688  -0.53670351   0.11143481
O     2.22288259  -1.35730447  -0.08623268
N     1.48138126   0.81062112  -0.15209945
C     2.73548173   1.35630524  -0.59836378
H    -2.31010833   1.67883475  -1.86846641
H    -3.47936452   1.74263208  -0.51624459
H    -3.19525982   0.21543822  -1.36851760
H    -1.33694074  -0.99501273  -0.92207013
H    -0.08591314  -0.38191164   1.71526567
H     0.66344248  -2.75397222   1.65133898
H    -0.07782124  -2.96516958   0.05786034
H    -1.09772573  -2.65098281   1.46869526
H     0.78823077   1.44222101   0.25100829
H     3.19143530   0.69999800  -1.34437812
H     3.40314934   1.44763175   0.26234318
H     2.55155963   2.34243236  -1.03062522
22
Unnamed conformer 74
C    -2.55429496  -1.55784845   0.81335161
C    -1.64703703  -0.75982151  -0.08201685
O    -1.41397275  -1.08344782  -1.24316269
N    -1.06697645   0.32877413   0.52197478
C    -0.11320329   1.18661999  -0.18586890
C    -0.13518951   2.58778094   0.41301495
C     1.31197364   0.58271750  -0.14912075
O     2.29649091   1.20533795   0.24123743
N     1.39186416  -0.69679719  -0.66297301
C     2.65641778  -1.35528993  -0.85528032
H    -3.45198737  -1.83848945   0.25564220
H    -2.02924956  -2.45680516   1.14627916
H    -2.86249924  -0.97782329   1.68783075
H    -1.03391177   0.34521161   1.53382117
H    -0.41118795   1.24785036  -1.23997867
H     0.54613510   3.25574252  -0.12454762
H     0.16975668   2.57539541   1.46564601
H    -1.14203298   3.01625025   0.36372456
H     0.57667522  -1.04447550  -1.16939019
H     3.12225113  -0.95994457  -1.76172354
H     2.47694299  -2.42680462  -0.96828619
H     3.31303525  -1.17413316  -0.00017389
22
Unnamed conformer 75
C    -3.32103630   1.01302501  -0.33084420
C    -2.18277616   0.34211326   0.38961651
O    -2.04330613   0.41704552   1.60615331
N    -1.32436242  -0.34906845  -0.43667918
C    -0.05488037  -0.83992756   0.08752807
C     0.35108062  -2.13162990  -0.60778681
C     1.01707486   0.23985071  -0.15944636
O     0.92064924   1.06515139  -1.06744732
N     2.11675216   0.15195804   0.67168931
C     3.15634747   1.14841359   0.61087182
H    -3.13429792   2.08922352  -0.37110596
H    -3.43233447   0.63091805  -1.34953486
H    -4.25118737   0.81880577   0.21031115
H    -1.28601532  -0.02477494  -1.39746811
H    -0.14523909  -1.01478773   1.16538583
H     1.29942442  -2.51116699  -0.21316623
H     0.47771443  -1.98013281  -1.68592194
H    -0.41198090  -2.90462711  -0.46762261
H     2.00553550  -0.35448231   1.54159539
H     3.42722346   1.34882110  -0.42927075
H     4.02589660   0.77742086   1.15807066
H     2.78971769   2.06785099   1.07507225
22
Unnamed conformer 76
C     3.59711919   0.66759723   0.40564893
C     2.40093895   0.44301447  -0.47871415
O     2.45408842   0.57770062  -1.69707304
N     1.25955595   0.08849724   0.19064785
C    -0.01286941  -0.10968127  -0.49106979
C    -0.09188675  -1.49781312  -1.11530337
C    -1.14184814   0.09250201   0.53806366
O    -0.91642707   0.20686910   1.74297397
N    -2.41241997   0.12547548   0.00098690
C    -3.55933811   0.39666132   0.83056313
H     3.84570283   1.73208378   0.40682593
H     4.44116618   0.09078598   0.01768053
H     3.40646551   0.34774276   1.43381485
H     1.22755930   0.10787988   1.20653118
H    -0.11113595   0.65883511  -1.26688072
H     0.72446657  -1.65953679  -1.82685941
H    -1.03672035  -1.64130173  -1.64948758
H    -0.02343456  -2.27787595  -0.34842345
H    -2.51091518   0.24189827  -0.99997338
H    -3.59700905   1.46982171   1.03541281
H    -4.45861057   0.09060842   0.29123779
H    -3.48444781  -0.15176452   1.77339736
22
Unnamed conformer 77
C     2.54179954   1.03780662   1.33697414
C     1.64675963   0.71314126   0.17286758
O     1.42740738   1.51120556  -0.73393480
N     1.06101793  -0.52754561   0.23546672
C     0.11726935  -0.98756596  -0.78646525
C     0.13406455  -2.50975309  -0.85761122
C    -1.30916640  -0.45435846  -0.50691518
O    -2.29743182  -1.18094924  -0.43830399
N    -1.38471863   0.92151889  -0.41290641
C    -2.64782888   1.60301180  -0.31385862
H     3.44582048   1.52980625   0.96773912
H     2.01137108   1.70402733   2.02212473
H     2.84016203   0.13354309   1.87495232
H     1.01561783  -0.98301124   1.13862021
H     0.42820436  -0.58464783  -1.75840540
H    -0.53962344  -2.87411559  -1.64038371
H     1.14208491  -2.87793503  -1.07689582
H    -0.18374147  -2.95596331   0.09163782
H    -0.56393195   1.45186159  -0.70772437
H    -2.46861864   2.61601523   0.05333661
H    -3.10194942   1.64388022  -1.30735737
H    -3.31456843   1.07002752   0.36919111
22
Unnamed conformer 78
C    -2.40702238  -1.71475350   0.93739859
C    -1.70256750  -0.58279771   0.24164896
O    -1.95135027  -0.26325115  -0.91736361
N    -0.72887100   0.02795453   0.99345565
C     0.09447106   1.11348341   0.45460421
C     0.58390365   2.00361387   1.59061529
C     1.27902832   0.55579504  -0.37182510
O     2.44870681   0.87192418  -0.16878875
N     0.89798214  -0.27505411  -1.40723686
C     1.84633769  -0.75863612  -2.37494582
H    -3.47843727  -1.65297032   0.72786290
H    -2.01172054  -2.66431009   0.56764544
H    -2.26720387  -1.66556375   2.02098781
H    -0.35419989  -0.48143657   1.78423879
H    -0.51992616   1.71525085  -0.22663158
H     1.17343363   2.84276523   1.20639012
H    -0.26040338   2.41123489   2.15695456
H     1.21490279   1.44430809   2.29075445
H    -0.09534208  -0.29846168  -1.64096944
H     2.77531466  -1.05558382  -1.88098737
H     1.40851691  -1.61463531  -2.89331132
H     2.05444667   0.04112403  -3.09049694
22
Unnamed conformer 79
C     3.41427284   0.70588548   0.17843150
C     2.18497444   0.07875636  -0.42186467
O     1.99688760   0.03659710  -1.63342259
N     1.30390947  -0.43081543   0.50626715
C    -0.02958068  -0.84572315   0.08558314
C    -0.52408423  -2.00856074   0.93413310
C    -0.98105580   0.35589833   0.24930982
O    -0.76427325   1.25985806   1.05599802
N    -2.12155012   0.28980983  -0.52703262
C    -3.05745304   1.38584755  -0.54008519
H     4.29550338   0.36295028  -0.37073034
H     3.33307269   1.79344701   0.10556445
H     3.53585981   0.42581499   1.22862383
H     1.34136345  -0.00335236   1.42584514
H    -0.00651278  -1.14307737  -0.96872505
H    -0.58543668  -1.73066548   1.99260930
H     0.15445421  -2.86443046   0.85346860
H    -1.52161106  -2.33154273   0.61829685
H    -2.09968001  -0.31536622  -1.33874103
H    -3.25934949   1.72244535   0.48039313
H    -2.62680989   2.20910413  -1.11633109
H    -3.98290083   1.04711947  -1.01124076
22
Unnamed conformer 80
C    -3.44015632   0.57397668  -0.10552330
C    -2.13001062   0.20861990   0.53856770
O    -1.82838653   0.58370339   1.66700197
N    -1.31399696  -0.57123234  -0.25093903
C     0.07223648  -0.79630581   0.14278458
C     0.54465166  -2.16985510  -0.31212994
C     0.94173989   0.29388579  -0.51406506
O     0.60511022   0.86630142  -1.55035859
N     2.15123642   0.51444949   0.11543598
C     3.02705362   1.56515371  -0.33881835
H    -3.40824602   1.62280288  -0.41152919
H    -3.64420786  -0.04819288  -0.98153275
H    -4.24793082   0.42339071   0.61598519
H    -1.45843040  -0.48228549  -1.25142859
H     0.16233798  -0.71815051   1.23195430
H     0.49322501  -2.26709094  -1.40266308
H    -0.07883044  -2.95858393   0.12216230
H     1.58238425  -2.34968862  -0.01229579
H     2.23575711   0.22072633   1.08092556
H     4.00833599   1.42206640   0.11920908
H     2.61023285   2.52791793  -0.03123324
H     3.11589447   1.53839100  -1.42823387
22
Unnamed conformer 81
C    -3.58773761   0.73539200   0.36992532
C    -2.42453338  -0.20710827   0.51835586
O    -2.52825906  -1.28917584   1.08733191
N    -1.25214451   0.24950573  -0.02339298
C    -0.00507600  -0.49726685   0.07775709
C     0.06991714  -1.58864118  -0.98342131
C     1.16087149   0.49819471  -0.07783900
O     0.98198520   1.66776764  -0.41813682
N     2.40837088  -0.02935957   0.18545282
C     3.58324257   0.80521334   0.16747927
H    -4.43782949   0.19000070  -0.04904822
H    -3.85202832   1.13424456   1.35277545
H    -3.35145889   1.56836835  -0.29798544
H    -1.17995045   1.20036577  -0.37563206
H     0.05056354  -0.94043600   1.07908599
H    -0.77163473  -2.28381652  -0.89727372
H     0.99475022  -2.16782873  -0.89467680
H     0.04388953  -1.15894369  -1.99137636
H     2.46510136  -0.92073294   0.66233126
H     3.61285471   1.38754814   1.09217687
H     4.46480370   0.16314807   0.10555924
H     3.55430211   1.48356056  -0.68944836
22
Unnamed conformer 82
C    -3.33274401   0.85262689   0.57518439
C    -2.15007234  -0.07601772   0.63623893
O    -1.92774757  -0.78954238   1.60911165
N    -1.35212550  -0.04405800  -0.48609208
C    -0.05136606  -0.70359948  -0.46738596
C     0.30226314  -1.23544375  -1.84899706
C     1.00456489   0.32812169  -0.02402780
O     0.84897592   1.53817126  -0.18667830
N     2.15809158  -0.22476488   0.49702457
C     3.19418182   0.62271673   1.03151037
H    -3.51441148   1.20493133  -0.44413111
H    -4.22442515   0.31940697   0.91625998
H    -3.14588637   1.71303868   1.22284929
H    -1.37838705   0.82026907  -1.01712902
H    -0.06854842  -1.52999312   0.25184642
H    -0.45183178  -1.95046686  -2.19470773
H     0.35553911  -0.42533058  -2.58536754
H     1.27414254  -1.73993871  -1.84093071
H     2.10490502  -1.17403155   0.84580989
H     4.09788070   0.02409651   1.16627148
H     2.86289827   1.01769395   1.99561916
H     3.39410274   1.45211394   0.34772119
22
Unnamed conformer 83
C    -2.48571877   1.31022879  -1.25418459
C    -1.70758431   0.41321906  -0.33127888
O    -1.90095818   0.38576533   0.88098367
N    -0.73904895  -0.33792471  -0.95319959
C     0.16127861  -1.19662284  -0.18291219
C     0.72626802  -2.29417685  -1.07512405
C     1.28950945  -0.32697871   0.41121964
O     2.40406687  -0.23173355  -0.09601996
N     0.90040022   0.38868933   1.52733172
C     1.76421181   1.37219058   2.12404401
H    -2.12733395   2.33675379  -1.14260071
H    -2.37369035   1.00294399  -2.29781035
H    -3.54656790   1.25803370  -0.99434384
H    -0.40116816  -0.01593298  -1.85235546
H    -0.39714039  -1.65558299   0.64196875
H     1.41794460  -2.93336080  -0.51628875
H     1.27215589  -1.87782096  -1.92943860
H    -0.07783787  -2.92297740  -1.47221334
H    -0.10473030   0.45814365   1.69751455
H     1.39444494   1.59770094   3.12677409
H     2.78839249   0.99365934   2.17882880
H     1.74310624   2.27578330   1.50910507
22
Unnamed conformer 84
C    -3.29424178   1.08115268  -0.16667787
C    -2.17028534   0.42580526   0.58966966
O    -2.02147609   0.57316684   1.79845732
N    -1.33597490  -0.33926300  -0.19516498
C    -0.07714941  -0.83092971   0.35341601
C     0.28935347  -2.17444555  -0.26091466
C     1.02223395   0.20131084   0.03429041
O     0.94277071   0.97026964  -0.92345238
N     2.12412994   0.13560700   0.86453650
C     3.19003523   1.09730027   0.73657858
H    -3.07860414   2.14715776  -0.27542069
H    -3.42202363   0.63901018  -1.15880003
H    -4.22603758   0.94693488   0.38964241
H    -1.29464351  -0.07715632  -1.17462647
H    -0.16570378  -0.93516218   1.44052735
H     1.22940303  -2.55436755   0.15272200
H     0.41353701  -2.09453664  -1.34698845
H    -0.49356826  -2.91583132  -0.06904494
H     2.00446418  -0.31192246   1.76508374
H     4.05247965   0.73764616   1.30227958
H     2.85134906   2.05382337   1.14354259
H     3.45995217   1.22442986  -0.31528577
22
Unnamed conformer 85
C    -3.37236539   0.83167046   0.26172615
C    -2.09543854   0.18388263   0.72502835
O    -1.75010770   0.18605533   1.90221593
N    -1.36199050  -0.39812343  -0.28526351
C     0.00127088  -0.84566918  -0.02346218
C     0.34111122  -2.06162033  -0.87359972
C     0.96120448   0.31050645  -0.36667172
O     0.66902714   1.18703447  -1.17982152
N     2.19165777   0.23372958   0.25613985
C     3.15612744   1.29260737   0.09502403
H    -4.18380674   0.54650373   0.93700001
H    -3.24695811   1.91742462   0.27191503
H    -3.64094591   0.51206110  -0.74913483
H    -1.50693617  -0.00900090  -1.21118213
H     0.10830529  -1.09687360   1.03764920
H     1.36065036  -2.40894729  -0.67603070
H    -0.34820033  -2.88661513  -0.66463737
H     0.27082334  -1.83149071  -1.94292868
H     2.25777580  -0.33514543   1.09136292
H     3.23199248   1.57759314  -0.95781171
H     2.83249298   2.15550016   0.68319262
H     4.12431021   0.93891695   0.45655302
22
Unnamed conformer 86
C     2.04613929  -1.98184912  -1.18736228
C     1.51143647  -0.97673481  -0.20477044
O     1.56753492  -1.14651975   1.00986484
N     0.91510727   0.11848489  -0.78027138
C     0.29175395   1.17055813   0.02669767
C     0.30736102   2.48750003  -0.73999515
C    -1.14827680   0.77715655   0.43745939
O    -2.12549910   1.49293661   0.23250667
N    -1.22867377  -0.42013911   1.12127533
C    -2.45911225  -0.86762469   1.71748715
H     1.35305623  -2.82458414  -1.25115705
H     2.16843648  -1.54192712  -2.18116510
H     3.02415274  -2.33179381  -0.84577611
H     0.61068853   0.03889380  -1.74265963
H     0.86959661   1.29274363   0.95128413
H    -0.12307794   3.29653020  -0.14037714
H    -0.27125571   2.41455510  -1.66792787
H     1.33123556   2.76954730  -1.00809745
H    -0.35096932  -0.82933813   1.44386415
H    -3.29856563  -0.67982890   1.04278570
H    -2.61401094  -0.32134298   2.65157524
H    -2.37705760  -1.93722368   1.92327558
22
Unnamed conformer 87
C     2.85627229  -1.18023746  -0.24818857
C     1.60481378  -0.72142522   0.44822455
O     1.03562168  -1.40023962   1.29825055
N     1.12914477   0.49359546   0.01952948
C    -0.10979310   1.06791782   0.55038914
C    -0.06618899   2.58685998   0.43501807
C    -1.34812849   0.48525950  -0.17363651
O    -2.21335653   1.18450206  -0.69493209
N    -1.43249279  -0.89224004  -0.11921232
C    -2.59174053  -1.59689055  -0.59806931
H     3.36545085  -0.34810268  -0.74258113
H     2.59512838  -1.93497782  -0.99438501
H     3.53994945  -1.60965664   0.48926533
H     1.43913017   0.82971035  -0.88387112
H    -0.19715728   0.79607040   1.60970865
H    -0.96911648   3.03930511   0.85853269
H     0.80051532   2.99282522   0.96771343
H     0.00791541   2.90444674  -0.61132067
H    -0.79971106  -1.37018111   0.52346297
H    -2.93717865  -1.16380814  -1.54055708
H    -2.32522937  -2.64603643  -0.74431848
H    -3.38384883  -1.51669692   0.15097741
22
Unnamed conformer 88
C     3.25445004   1.09927059   0.66139916
C     2.20937999   0.34802687  -0.11852531
O     2.20527601   0.31583371  -1.34489187
N     1.27073204  -0.28566544   0.66552987
C     0.07182838  -0.84317231   0.04978967
C    -0.39722569  -2.07787770   0.80626297
C    -1.03061215   0.23366233   0.08232648
O    -1.04310848   1.13537967   0.91996160
N    -2.03029663   0.05443070  -0.85378753
C    -3.07914058   1.03291805  -0.99474500
H     3.05470222   2.17129693   0.58687901
H     3.25531381   0.80798713   1.71557098
H     4.24068086   0.87674618   0.24476788
H     1.12294888   0.11899071   1.58431427
H     0.28296015  -1.10803128  -0.99222314
H    -1.29239791  -2.50740682   0.34441765
H     0.38361337  -2.84571054   0.81876468
H    -0.64422128  -1.83694514   1.84660305
H    -1.81855321  -0.52252184  -1.65869590
H    -2.67149411   1.91586170  -1.49424250
H    -3.46571029   1.31663522  -0.01214432
H    -3.87912545   0.60029128  -1.59975410
22
Unnamed conformer 89
C    -2.28244313   1.83567190  -1.01666787
C    -1.56122094   0.92497281  -0.06162133
O    -1.42204834   1.19295547   1.12839082
N    -1.03282172  -0.20244381  -0.64131249
C    -0.25159981  -1.17270248   0.12999516
C    -0.35080300  -2.54827762  -0.51834795
C     1.22298349  -0.71985047   0.26306366
O     2.17566310  -1.43155120  -0.04547124
N     1.37626784   0.53091035   0.82847168
C     2.67301592   1.04895893   1.17453810
H    -3.20164073   2.19405389  -0.54519179
H    -2.55242707   1.31332105  -1.93883463
H    -1.63680715   2.68319977  -1.26056899
H    -0.89369551  -0.19653106  -1.64421128
H    -0.66512525  -1.22930634   1.14463033
H    -1.39522666  -2.87061695  -0.58923657
H     0.06452032  -2.54099747  -1.53256262
H     0.19828305  -3.29703496   0.06235560
H     0.55093017   0.94866329   1.25994805
H     3.39555784   0.82213905   0.38608582
H     2.99706298   0.58434092   2.10945023
H     2.59157461   2.13012492   1.30709732
22
Unnamed conformer 90
C    -2.88031624   0.84013591  -0.78154457
C    -1.62049671   0.81806196   0.03944013
O    -1.06721558   1.84312360   0.42730774
N    -1.11842797  -0.43829525   0.27567997
C     0.13159052  -0.64370327   1.01180930
C     0.12046230  -2.01498063   1.67654356
C     1.35841197  -0.48078665   0.08146264
O     2.23913143  -1.33062407  -0.02540091
N     1.41339619   0.73840241  -0.56517442
C     2.55816720   1.12854823  -1.34426239
H    -3.37088071  -0.13734225  -0.78553806
H    -3.57415782   1.56902729  -0.35381319
H    -2.63409446   1.12189305  -1.80849335
H    -1.41976235  -1.18914110  -0.33310914
H     0.21147216   0.12578579   1.78975349
H     0.05478940  -2.81720433   0.93270069
H    -0.73826506  -2.11436343   2.34919413
H     1.03212634  -2.17553073   2.26172886
H     0.76957770   1.46254758  -0.24426399
H     3.35060348   1.45128789  -0.66395359
H     2.91423857   0.28681778  -1.94415822
H     2.26964965   1.95634023  -1.99590867
22
Unnamed conformer 91
C     2.61230293   0.64251895   1.60953239
C     1.72714095   0.44362969   0.41012398
O     1.67890488   1.24868640  -0.51554859
N     0.94610735  -0.68493796   0.46148373
C    -0.01506914  -1.00674786  -0.59644012
C    -0.24192979  -2.51283261  -0.64783055
C    -1.34698643  -0.24519222  -0.38857677
O    -2.44187608  -0.80148125  -0.35587576
N    -1.20271764   1.12644447  -0.31519399
C    -2.34188134   2.00445292  -0.28205839
H     3.59902280   0.97499759   1.27562431
H     2.73700401  -0.28728926   2.17170558
H     2.16793281   1.39884577   2.26156013
H     0.78895982  -1.10933854   1.36723471
H     0.39830031  -0.67835171  -1.55819466
H    -0.93161031  -2.77909997  -1.45578577
H     0.70162166  -3.04292001  -0.81654824
H    -0.66810605  -2.88328563   0.29148647
H    -0.29503879   1.51165484  -0.57902005
H    -2.74045897   2.09852204  -1.29557966
H    -3.11473221   1.59940964   0.37658577
H    -2.01689080   2.98231471   0.08028486
22
Unnamed conformer 92
C    -3.20725107  -1.35460839  -0.09538385
C    -2.01641551  -0.82129007  -0.84525277
O    -1.62785377  -1.32019023  -1.89651212
N    -1.41238603   0.26081435  -0.24394819
C    -0.11604651   0.72485737  -0.72507948
C     0.01602682   2.23084628  -0.54811954
C     0.98214735   0.01001411   0.08669318
O     0.78376974  -0.42068147   1.22248847
N     2.21337561  -0.03652739  -0.53757727
C     3.30962897  -0.75013831   0.06770670
H    -2.93058620  -2.29079526   0.39624993
H    -4.02330211  -1.53412948  -0.80078029
H    -3.55775048  -0.64444016   0.65889476
H    -1.53789171   0.32956058   0.76067834
H    -0.00335168   0.46738950  -1.78410094
H     0.98381889   2.58810246  -0.91537502
H    -0.77331798   2.75698090  -1.09543080
H    -0.06360059   2.51578809   0.50726196
H     2.23211122   0.08272258  -1.54307103
H     3.38294687  -0.49997083   1.12953370
H     3.13371624  -1.82358678  -0.04195853
H     4.23221195  -0.47071785  -0.44604708
22
Unnamed conformer 93
C     2.56150171   1.72031653   0.19187994
C     1.63554889   0.71727379  -0.43912284
O     1.36330275   0.73183126  -1.63619510
N     1.08602358  -0.18144160   0.44215344
C     0.12001293  -1.19433946   0.00915658
C     0.17538440  -2.39506365   0.94595579
C    -1.30968794  -0.60456135  -0.06361026
O    -2.27500378  -1.10860897   0.50508241
N    -1.41900957   0.50025055  -0.88520884
C    -2.69582919   1.08444563  -1.19848074
H     3.43851523   1.85068562  -0.44804497
H     2.03747418   2.67335018   0.30031601
H     2.90270260   1.38461626   1.17525212
H     1.08439885   0.06202226   1.42496469
H     0.38592769  -1.52307954  -1.00322204
H    -0.51507376  -3.18013040   0.61993904
H     1.18472587  -2.81946729   0.97529958
H    -0.09702344  -2.11393271   1.96964306
H    -0.62359455   0.70838905  -1.49007650
H    -3.18522147   0.46880594  -1.95770354
H    -3.32374518   1.12705707  -0.30457074
H    -2.53132981   2.09158082  -1.58802079
22
Unnamed conformer 94
C     3.22526638   1.30821395   0.06324608
C     2.11978766   0.56309609  -0.63499229
O     1.91400671   0.67499194  -1.83921882
N     1.37095609  -0.23998794   0.19667849
C     0.12800968  -0.82659239  -0.29147960
C    -0.12175001  -2.17870580   0.36133771
C    -1.02577685   0.13566259   0.05326271
O    -0.96139198   0.92792494   0.99297461
N    -2.15233965  -0.02130574  -0.73033125
C    -3.27543714   0.86887266  -0.57665576
H     2.94190995   2.35929101   0.16142299
H     4.14150480   1.22558824  -0.52788009
H     3.42169665   0.89633639   1.05717601
H     1.35030312   0.03899566   1.17212340
H     0.18076527  -0.94715414  -1.37922909
H    -0.20839827  -2.08482842   1.44993387
H    -1.04923464  -2.62956968  -0.00693343
H     0.70172547  -2.86950511   0.15129666
H    -2.03786231  -0.47833714  -1.62677119
H    -3.01890555   1.83738521  -1.01419301
H    -4.13289266   0.44030241  -1.10036895
H    -3.51194272   0.99932528   0.48281689
22
Unnamed conformer 95
C     2.77386683   1.31452103   0.64293964
C     1.60179613   0.78363053  -0.13555512
O     1.07149787   1.41656740  -1.04411834
N     1.14772814  -0.44190761   0.28657372
C    -0.01972975  -1.08388015  -0.32296604
C     0.08111904  -2.59628627  -0.16531435
C    -1.33505172  -0.54221652   0.28834950
O    -2.20688973  -1.26832713   0.75948779
N    -1.47507208   0.82843503   0.19195626
C    -2.69783310   1.49004823   0.56184094
H     3.49359166   1.75793865  -0.05062155
H     3.27876965   0.51778078   1.19648178
H     2.42258541   2.07317762   1.34698347
H     1.40071209  -0.74321598   1.21953021
H    -0.03600860  -0.84010762  -1.39254583
H    -0.76537387  -3.09881354  -0.64517433
H     1.00365352  -2.97414235  -0.61908161
H     0.08720296  -2.88663319   0.89149170
H    -0.81559717   1.32021053  -0.41229644
H    -2.48966346   2.55326630   0.70097290
H    -3.42483822   1.35706613  -0.24358863
H    -3.09646558   1.06288815   1.48585176
22
Unnamed conformer 96
C     3.32563638   0.59438099   0.86707955
C     2.11272088   0.75478888  -0.00923395
O     1.82045251   1.82508470  -0.53275352
N     1.37232930  -0.39691789  -0.16010629
C     0.05208922  -0.33210793  -0.77661674
C    -0.24975523  -1.61491507  -1.53823188
C    -0.99133299  -0.13588589   0.34086772
O    -0.78988758  -0.50135580   1.49876869
N    -2.18592881   0.41169839  -0.08444888
C    -3.21982724   0.73114114   0.86759720
H     3.13433872   1.06854315   1.83313854
H     3.56825223  -0.45985868   1.02783005
H     4.18220894   1.07208491   0.38351645
H     1.45189410  -1.07025527   0.59490234
H     0.00783789   0.52181221  -1.46172898
H     0.49752178  -1.78748170  -2.32004371
H    -0.24119884  -2.48474563  -0.87138435
H    -1.23627082  -1.57023497  -2.01143519
H    -2.17988812   0.92524105  -0.95727445
H    -2.92406646   1.62664788   1.42063962
H    -3.35965660  -0.09833959   1.56605577
H    -4.14746925   0.92067512   0.32286201
22
Unnamed conformer 97
C     3.49713720   0.87236508   0.74734623
C     2.42307357   0.51007008  -0.24185149
O     2.61523705   0.53335350  -1.45341814
N     1.22406394   0.16550182   0.32395094
C     0.04937787  -0.15531215  -0.47621882
C     0.09527506  -1.59761280  -0.96660992
C    -1.20013935   0.08780140   0.39222229
O    -1.12332284   0.32419957   1.59800779
N    -2.39850550   0.01038510  -0.28734804
C    -3.64469293   0.30271788   0.37500880
H     4.40159131   0.30276947   0.51676136
H     3.19780181   0.64066516   1.77325746
H     3.70498849   1.94296304   0.67288248
H     1.07127871   0.27765815   1.32269811
H     0.01587542   0.53227299  -1.32959930
H     0.99548873  -1.78582041  -1.56082604
H    -0.77380368  -1.83478484  -1.58878511
H     0.10066864  -2.29892489  -0.12433763
H    -2.38190775   0.02849357  -1.29956042
H    -4.46204813  -0.09444730  -0.23114477
H    -3.66215257  -0.15157906   1.36930533
H    -3.74528506   1.38726460   0.46825889
22
Unnamed conformer 98
C    -3.32580963   0.68704087   0.87368872
C    -2.18536167  -0.23267984   0.52972325
O    -2.04870918  -1.33159901   1.05767162
N    -1.32158137   0.27301106  -0.41660140
C    -0.05050969  -0.39711719  -0.66684821
C     0.36381217  -0.23880792  -2.12288317
C     1.01608443   0.23816659   0.24682451
O     0.91701137   1.38994266   0.66929403
N     2.11456209  -0.56476402   0.48442506
C     3.14887305  -0.13331128   1.39075260
H    -4.25595852   0.11237916   0.89203575
H    -3.14480303   1.12934210   1.85669358
H    -3.43304791   1.48705218   0.13571486
H    -1.28308255   1.28522186  -0.47741362
H    -0.14206854  -1.46158244  -0.42384954
H     1.31340292  -0.74705617  -2.32059641
H    -0.39534036  -0.65964551  -2.79072751
H     0.49177888   0.81713073  -2.38742216
H     2.00433617  -1.56131665   0.34187933
H     4.01930728  -0.77975025   1.25794031
H     2.77633920  -0.21749942   2.41515180
H     3.42076488   0.90584249   1.18662252
22
Unnamed conformer 99
C     3.15447068   1.38534827  -0.49716657
C     1.82942349   0.83371255  -0.94967975
O     1.20470970   1.31829046  -1.88773357
N     1.39134824  -0.24752458  -0.21729672
C     0.02445206  -0.72807162  -0.38459452
C    -0.04685626  -2.23328729  -0.17011349
C    -0.86623608  -0.01479511   0.65170515
O    -0.41753621   0.42930409   1.70826922
N    -2.20822758   0.01430059   0.32610613
C    -3.14435301   0.72424443   1.16098988
H     2.98752874   2.32400466   0.03738733
H     3.78502513   1.56494643  -1.37232123
H     3.67640971   0.68611974   0.16221409
H     1.74457656  -0.30482329   0.73228123
H    -0.33086883  -0.48250652  -1.39155127
H     0.27574738  -2.50665715   0.84110289
H    -1.06905185  -2.60294552  -0.30277481
H     0.60176670  -2.75792261  -0.87967575
H    -2.45565895  -0.11544087  -0.64730635
H    -4.15699280   0.43131258   0.87475604
H    -3.01016040   1.79804188   1.00538186
H    -2.96951642   0.48434885   2.21328159
