22
Unnamed conformer 0
C     1.95567585   0.95320763   2.18136759
C     1.40252957   0.05688431   1.10781825
O     1.25586324  -1.15171291   1.26753331
N     1.03904207   0.71030147  -0.04543203
C     0.40484229  -0.00704795  -1.15200093
C     0.60847782   0.75655829  -2.45404396
C    -1.09628457  -0.17890992  -0.83694472
O    -1.96830174   0.55586701  -1.29333423
N    -1.35483400  -1.19393450   0.06426043
C    -2.67394172  -1.40108964   0.59956603
H     1.18869576   1.11566496   2.94293987
H     2.26640463   1.91937742   1.77382193
H     2.82971932   0.47515186   2.63209185
H     0.85377115   1.70431934   0.01722966
H     0.85858666  -1.00135632  -1.24349242
H     0.19120271   1.76841334  -2.39720302
H     0.12161535   0.24097917  -3.28855704
H     1.67498621   0.85203598  -2.68447720
H    -0.55551512  -1.55126329   0.59102235
H    -3.42227961  -1.31465673  -0.19274212
H    -2.86456124  -0.64301524   1.36380509
H    -2.71569463  -2.39673690   1.04677132
22
Unnamed conformer 1
C     2.72582636   0.83852660  -1.27526130
C     1.77621950   0.33986234  -0.22111260
O     1.77287321   0.77892890   0.92541361
N     0.88609675  -0.60887856  -0.66143995
C    -0.14586497  -1.16529604   0.21724075
C    -0.52826884  -2.56278311  -0.25519391
C    -1.38273283  -0.23615635   0.28076619
O    -2.52672257  -0.62268198   0.05450151
N    -1.09532745   1.05258936   0.68588034
C    -2.13586038   2.00913466   0.95421525
H     3.72688080   0.92502943  -0.84391607
H     2.77737875   0.15000662  -2.12344495
H     2.38879895   1.81675995  -1.62755232
H     0.72363177  -0.67693145  -1.65852099
H     0.25906645  -1.23436472   1.23456633
H    -1.27438564  -3.01176528   0.40894026
H     0.34803206  -3.21957712  -0.27680944
H    -0.95118090  -2.53922086  -1.26601940
H    -0.16451128   1.22102434   1.06939412
H    -2.91843626   1.94260419   0.19374190
H    -2.56410347   1.79361232   1.93660788
H    -1.69740999   3.00957675   0.95278003
22
Unnamed conformer 2
C     3.23209022  -1.30149020   0.15715654
C     2.11111430  -0.41783653   0.63401055
O     1.88139070  -0.23763083   1.82555599
N     1.37737426   0.15583775  -0.38082537
C     0.12354899   0.83406621  -0.07220333
C    -0.11604696   1.98718221  -1.03640169
C    -1.02091495  -0.19098679  -0.19659884
O    -0.93586819  -1.18591432  -0.91616056
N    -2.16336185   0.14230922   0.50449389
C    -3.28115044  -0.76652344   0.54869522
H     2.95313008  -2.34720913   0.30995285
H     4.13606091  -1.07237981   0.72820484
H     3.44755414  -1.13995114  -0.90284582
H     1.37697630  -0.35016750  -1.26043337
H     0.15413909   1.21361912   0.95518208
H     0.70149097   2.71400328  -0.98352806
H    -0.18056768   1.63308439  -2.07168640
H    -1.05175767   2.50699640  -0.80538559
H    -2.06796441   0.80272509   1.26629264
H    -3.49599647  -1.15015458  -0.45235598
H    -4.14992565  -0.23038436   0.93723432
H    -3.03131568  -1.59919505   1.21164608
22
Unnamed conformer 3
C    -2.43281234   1.77418708   0.87910536
C    -1.58979277   0.86935953   0.02338741
O    -1.34179033   1.11610575  -1.15344030
N    -1.08420804  -0.22539005   0.68082446
C    -0.19783137  -1.18355158   0.01532591
C    -0.31486795  -2.54730804   0.68530180
C     1.26661369  -0.68098292   0.01724624
O     2.20717829  -1.35105201   0.43635878
N     1.43336144   0.56182647  -0.56172234
C     2.73999571   1.11848245  -0.79092080
H    -3.31194833   2.08892164   0.31014783
H    -1.84354363   2.64949494   1.16412347
H    -2.77567951   1.26273097   1.78297877
H    -1.04600911  -0.19256216   1.69209060
H    -0.50603181  -1.27714799  -1.03345583
H     0.31421584  -3.28834662   0.18085689
H    -1.34972882  -2.90536921   0.66074554
H    -0.00317632  -2.50293730   1.73509074
H     0.64156540   0.94010131  -1.08310408
H     2.63587690   2.19286348  -0.95821972
H     3.38756667   0.93508521   0.07058265
H     3.17104642   0.64548906  -1.67715398
22
Unnamed conformer 4
C     3.34229254   1.53121169   0.24546613
C     2.10942182   1.17452260  -0.53950844
O     1.92896487   1.56745207  -1.68772637
N     1.21366672   0.38970112   0.13736810
C    -0.06553832  -0.00501767  -0.43788088
C     0.09571227  -1.20120643  -1.36844580
C    -1.02657992  -0.33802834   0.71974167
O    -0.64271634  -0.41776185   1.88678707
N    -2.33681314  -0.54509216   0.33986772
C    -3.36432940  -0.77699256   1.32352946
H     3.40551683   0.96586107   1.17936263
H     4.22669738   1.30173267  -0.35521167
H     3.32052909   2.59883442   0.47920684
H     1.34380038   0.18912485   1.12542348
H    -0.47322281   0.85003054  -0.99000377
H     0.79973124  -0.98173300  -2.17782095
H     0.47624699  -2.07344333  -0.82467478
H    -0.85960610  -1.48507326  -1.82169663
H    -2.62239005  -0.25592389  -0.58749698
H    -3.62862998   0.17805370   1.78514449
H    -4.23729811  -1.19991803   0.82124191
H    -3.00545595  -1.46633421   2.09251351
22
Unnamed conformer 5
C     3.48860718   1.18584722  -0.23377892
C     2.32740604   0.42315822  -0.81115879
O     2.36323844  -0.07097518  -1.93361051
N     1.23807766   0.33775618   0.01503843
C    -0.00331426  -0.30478521  -0.39704577
C     0.08866950  -1.81939651  -0.25124575
C    -1.14220417   0.25934440   0.47431220
O    -0.92254321   0.95188419   1.46841039
N    -2.41231115  -0.07574582   0.05514177
C    -3.57673000   0.31700699   0.80764371
H     3.33567705   1.41737919   0.82394262
H     4.39432351   0.58007901  -0.32521344
H     3.61164384   2.12117073  -0.78602465
H     1.20552926   0.86244185   0.88517229
H    -0.20024720  -0.03678822  -1.44176360
H    -0.83214001  -2.30979570  -0.58274531
H     0.91625191  -2.22515571  -0.84231116
H     0.25674502  -2.10367708   0.79387753
H    -2.52885256  -0.73287726  -0.70575416
H    -3.69509038  -0.36969255   1.64986970
H    -4.45025944   0.25525518   0.15460660
H    -3.46247704   1.33756609   1.18263682
22
Unnamed conformer 6
C     2.45534475   1.06116501   1.56251834
C     1.71460461   0.41525198   0.42420856
O     1.90922960   0.72180059  -0.74859228
N     0.77282637  -0.50700559   0.80996783
C    -0.07936486  -1.19323185  -0.16444930
C    -0.52141596  -2.54050192   0.39398790
C    -1.29724651  -0.31911127  -0.55156024
O    -2.45811747  -0.71570832  -0.48523338
N    -0.95922114   0.92458907  -1.04808118
C    -1.94788904   1.80938663  -1.60428336
H     3.51588204   1.13190465   1.30579366
H     2.04843294   2.06106688   1.73356120
H     2.36438126   0.47484837   2.48126281
H     0.43676344  -0.46752856   1.76427431
H     0.50066686  -1.36305055  -1.08009954
H     0.34556767  -3.16096579   0.64520931
H    -1.13182809  -3.08626704  -0.33325816
H    -1.11739663  -2.41720772   1.30546096
H     0.02264274   1.07973535  -1.27991065
H    -2.85215312   1.80292872  -0.98992496
H    -1.52969309   2.81771252  -1.64321614
H    -2.19201636   1.47018883  -2.61437423
22
Unnamed conformer 7
C    -2.63780375   1.36939006   0.98078974
C    -1.71073519   0.60794711   0.07392875
O    -1.56905633   0.88968481  -1.11260542
N    -1.00417218  -0.39292456   0.69468679
C    -0.01560911  -1.20004329  -0.02498522
C     0.12003286  -2.56464121   0.63974858
C     1.34941939  -0.47303904  -0.09806063
O     2.40509677  -0.98620732   0.26458704
N     1.28677858   0.78002838  -0.67554021
C     2.47511293   1.53538850  -0.97047033
H    -3.58516122   1.54119025   0.46247549
H    -2.84620479   0.81108215   1.89784708
H    -2.17899399   2.32685245   1.24039714
H    -0.91664734  -0.35363403   1.70265119
H    -0.36184580  -1.34191130  -1.05633630
H    -0.84537767  -3.08128555   0.66819686
H     0.82949547  -3.19774480   0.09643307
H     0.47750896  -2.47083323   1.67153757
H     0.41814261   1.02839937  -1.15057223
H     2.19428716   2.57980892  -1.12359669
H     2.92635426   1.13546329  -1.88226979
H     3.18937837   1.45702905  -0.14654365
22
Unnamed conformer 8
C     2.64986057   1.50113850   0.60025551
C     1.62496639   0.77255903  -0.22461530
O     1.23833618   1.18681065  -1.31375540
N     1.12605029  -0.36388575   0.36351007
C     0.08018295  -1.16733875  -0.27465131
C     0.17526414  -2.61178285   0.20173043
C    -1.32336729  -0.57578154   0.00335006
O    -2.24933109  -1.23277982   0.47266228
N    -1.46496950   0.74030548  -0.39092184
C    -2.74015727   1.40544133  -0.35654609
H     3.46515324   1.83018040  -0.04988389
H     3.07057082   0.85463945   1.37561014
H     2.17997683   2.36782699   1.07216451
H     1.23050506  -0.46138742   1.36589672
H     0.23201723  -1.14248837  -1.36093869
H    -0.57649015  -3.23816008  -0.29006851
H     1.16365360  -3.02965831  -0.01784776
H     0.01605096  -2.68523712   1.28359621
H    -0.72407728   1.13164678  -0.97384815
H    -3.32693014   1.08143775  -1.22006033
H    -2.57158815   2.48348673  -0.40681964
H    -3.27567738   1.15302692   0.56251715
22
Unnamed conformer 9
C     3.24890804   1.18120507   0.46294320
C     2.07369205   0.30386190   0.80051747
O     1.75810675   0.04946721   1.95841079
N     1.39528775  -0.17412684  -0.29887506
C     0.10482540  -0.83068863  -0.12293994
C    -0.10044697  -1.90607659  -1.18037377
C    -0.99934663   0.23736462  -0.24971596
O    -0.83752169   1.27626208  -0.88954969
N    -2.19592002  -0.10599419   0.34871430
C    -3.28826128   0.83367509   0.38325371
H     2.98949500   2.22244704   0.67082204
H     4.10496331   0.88382638   1.07489578
H     3.53173914   1.08622520  -0.58924941
H     1.46916689   0.39111254  -1.13839754
H     0.05448789  -1.28102439   0.87464767
H    -1.06392834  -2.40973011  -1.04935355
H    -0.08411983  -1.47946739  -2.18987889
H     0.69092141  -2.66114571  -1.12524256
H    -2.17132870  -0.82017259   1.06630162
H    -3.42336734   1.29228459  -0.60003596
H    -3.06113782   1.61000401   1.11877486
H    -4.19621500   0.30069070   0.67433089
22
Unnamed conformer 10
C     3.43593514   0.36479540   0.42835717
C     2.22402907  -0.14226789  -0.30580309
O     2.16728504  -0.17541553  -1.53083712
N     1.19983265  -0.55445702   0.51790182
C    -0.11380163  -0.83856477  -0.04863761
C    -0.81188892  -1.93973012   0.73677355
C    -0.95333717   0.45273238   0.01248609
O    -0.73795648   1.33728687   0.84077205
N    -2.00226207   0.49369210  -0.88522257
C    -2.81741781   1.67694879  -0.99838886
H     3.41267090   0.08257131   1.48473433
H     4.33381627  -0.06821991  -0.02115073
H     3.47175171   1.45442383   0.35012684
H     1.17807040  -0.12535669   1.43722300
H    -0.00441209  -1.14530345  -1.09480265
H    -0.96152749  -1.64853017   1.78280123
H    -1.79569172  -2.16481095   0.31180224
H    -0.21705187  -2.85926425   0.72905439
H    -1.95138948  -0.11726547  -1.69128113
H    -2.24624101   2.44874260  -1.52122232
H    -3.71440746   1.42778146  -1.56979358
H    -3.09600601   2.04021148  -0.00548218
22
Unnamed conformer 11
C     2.24175106   1.96852549  -0.84398736
C     1.53213853   0.97378958   0.03271042
O     1.36267764   1.15614730   1.23493388
N     1.05033579  -0.12718746  -0.63214428
C     0.28602657  -1.17067473   0.05603524
C     0.44049936  -2.49550134  -0.68110074
C    -1.20430858  -0.77266456   0.18895306
O    -2.12821806  -1.49027830  -0.18618943
N    -1.40736150   0.43167735   0.83386723
C    -2.72596107   0.88563706   1.18728891
H     1.57430343   2.81073056  -1.04358947
H     2.54503215   1.51829328  -1.79343169
H     3.14033846   2.32174554  -0.33073496
H     0.92959589  -0.05750282  -1.63502144
H     0.68236458  -1.28341178   1.07284280
H     1.49569956  -2.78057576  -0.75204873
H    -0.09530217  -3.29815892  -0.16340698
H     0.04391134  -2.43203607  -1.70083981
H    -0.60370208   0.84397170   1.30927932
H    -3.42633623   0.69106844   0.37071771
H    -3.05236704   0.34911246   2.08201641
H    -2.68111762   1.95729295   1.39384990
22
Unnamed conformer 12
C    -2.15330384   2.22737565  -0.14504760
C    -1.57909604   0.84771107  -0.31374729
O    -1.70856797   0.20080647  -1.34915271
N    -0.86046838   0.39565555   0.76585286
C    -0.18541366  -0.90464200   0.75348030
C    -0.04659370  -1.42837281   2.17785123
C     1.19234087  -0.80967107   0.05351505
O     2.23822080  -1.19204580   0.57239368
N     1.13263662  -0.32257176  -1.23751336
C     2.28812133  -0.31235370  -2.09450942
H    -2.18786742   2.51885592   0.90850730
H    -1.53584161   2.94234804  -0.69476753
H    -3.17393707   2.24124775  -0.53717899
H    -0.51834157   1.08271054   1.42623244
H    -0.79393679  -1.61070215   0.17480055
H     0.42486299  -2.41678240   2.18901164
H     0.56725212  -0.75800645   2.79020739
H    -1.02713487  -1.51298108   2.65860998
H     0.20742755  -0.24721473  -1.66199124
H     3.17250564   0.00580312  -1.53610822
H     2.10122303   0.37553788  -2.92215601
H     2.44591195  -1.32270803  -2.48080448
22
Unnamed conformer 13
C     1.94467670   1.93017467   1.48069896
C     1.49409573   0.89234166   0.48986370
O     1.70922401   0.99237936  -0.71489318
N     0.78894325  -0.15050634   1.04149031
C     0.20747865  -1.19743918   0.20058318
C    -0.01290742  -2.46253863   1.01962662
C    -1.12073578  -0.67909840  -0.39047353
O    -2.22060396  -0.95465400   0.08171416
N    -0.94734743   0.18186120  -1.45723447
C    -2.05838649   0.88882301  -2.03629218
H     1.91212125   1.54575248   2.50407054
H     2.97566850   2.21662507   1.25565964
H     1.29279708   2.80427091   1.40551994
H     0.35232259   0.00328827   1.94261941
H     0.89444390  -1.41880068  -0.62523860
H     0.93695887  -2.83905379   1.41414664
H    -0.46647973  -3.24916800   0.40745375
H    -0.67551314  -2.27954600   1.87324668
H    -0.00813939   0.56214470  -1.58893868
H    -2.32497283   1.72056504  -1.37886488
H    -1.75624158   1.27130440  -3.01377163
H    -2.91740277   0.22127425  -2.14446346
22
Unnamed conformer 14
C    -2.99282860   1.62528562  -0.93279112
C    -1.86200339   0.67840256  -1.23190213
O    -1.37076549   0.57857365  -2.35161062
N    -1.43617613  -0.04993644  -0.14306684
C    -0.20081894  -0.82073899  -0.22718574
C    -0.28601709  -2.07002800   0.63813460
C     0.95671682   0.07097286   0.26369763
O     0.78008777   1.00437286   1.04628922
N     2.20378438  -0.31329705  -0.18902867
C     3.36654905   0.48024116   0.12025673
H    -3.75041223   1.53683830  -1.71636926
H    -3.46530204   1.39612388   0.02657238
H    -2.60613461   2.64726030  -0.90578829
H    -1.60555648   0.37660092   0.76199015
H    -0.01591576  -1.10629750  -1.26871553
H    -1.12101317  -2.70471499   0.32287767
H    -0.44188909  -1.81375436   1.69235937
H     0.63502729  -2.65875119   0.57323280
H     2.24137051  -0.89351214  -1.01820001
H     3.34577150   1.38716572  -0.48992338
H     3.36664536   0.75375010   1.17885399
H     4.25888035  -0.10455727  -0.11412271
22
Unnamed conformer 15
C     3.23203060   1.22205632   0.47490480
C     2.08548160   0.29398576   0.77311817
O     1.80435822  -0.05282324   1.91579980
N     1.39104255  -0.11775117  -0.34294448
C     0.12036842  -0.81655449  -0.18680119
C    -0.08676491  -1.81553212  -1.31635917
C    -1.01027672   0.23091121  -0.20835217
O    -0.88763431   1.31785447  -0.77261853
N    -2.18371653  -0.18458102   0.39015256
C    -3.29567814   0.72325548   0.51959569
H     4.10938927   0.90107705   1.04320472
H     3.49085619   1.21195634  -0.58765399
H     2.95453891   2.23850759   0.76562669
H     1.43148022   0.50958962  -1.13953727
H     0.10478139  -1.34044691   0.77539000
H    -1.03517848  -2.35065847  -1.20111585
H     0.72246168  -2.55323725  -1.33576224
H    -0.10493258  -1.31523654  -2.29141682
H    -2.12541215  -0.94902092   1.05183178
H    -3.06795375   1.44837824   1.30547212
H    -4.18399185   0.14840298   0.79092856
H    -3.46524964   1.24986707  -0.42346318
22
Unnamed conformer 16
C    -2.28027194   0.92902233   1.88418261
C    -1.63868239   0.51477955   0.58864647
O    -1.78888762   1.14566634  -0.45381832
N    -0.83606454  -0.59581677   0.68189699
C    -0.08971990  -1.10724971  -0.47050531
C     0.15836023  -2.60157422  -0.30362953
C     1.23897277  -0.33533428  -0.65998068
O     2.33239178  -0.88902832  -0.74464310
N     1.07931906   1.02956030  -0.79839195
C     2.18248433   1.88774367  -1.13932979
H    -2.27228237   0.11276501   2.61205103
H    -1.73637855   1.78260475   2.29675250
H    -3.32041158   1.20873683   1.69571169
H    -0.49719669  -0.85754931   1.59942674
H    -0.68847119  -0.94708577  -1.37578736
H     0.68528995  -3.01187665  -1.17158441
H     0.76634275  -2.80719346   0.58477132
H    -0.78726821  -3.14288407  -0.19174382
H     0.12898170   1.37253935  -0.94363865
H     1.91056705   2.91718513  -0.89553404
H     2.37573258   1.79951678  -2.21162066
H     3.07719278   1.59547253  -0.58323173
22
Unnamed conformer 17
C    -3.55184728   0.40955133  -0.74609091
C    -2.16831796  -0.07199791  -1.08863864
O    -1.88637136  -0.51614406  -2.19706251
N    -1.26108336   0.03734213  -0.06812216
C     0.14184976  -0.32035486  -0.23217092
C     0.34599183  -1.82412345  -0.09136129
C     0.95621387   0.44412193   0.82941927
O     0.41708927   1.07377903   1.73968309
N     2.32503811   0.35659163   0.67925366
C     3.21259635   1.09248428   1.54404313
H    -4.27618262  -0.36329584  -1.01755319
H    -3.65551551   0.61698372   0.32255618
H    -3.76025185   1.32506767  -1.30584493
H    -1.50418137   0.52274566   0.79135785
H     0.46846622   0.01329991  -1.22421442
H     1.39539832  -2.09929592  -0.23859066
H     0.05015023  -2.16902851   0.90603964
H    -0.25213043  -2.37570242  -0.82410281
H     2.69365821   0.01123458  -0.19825729
H     3.22484315   2.13795463   1.22482933
H     2.86978626   1.03203870   2.58045288
H     4.21480016   0.66674776   1.45704703
22
Unnamed conformer 18
C     2.71601735  -0.93339654   1.16828029
C     1.71125283  -0.59856308   0.10058050
O     1.48086706  -1.34497425  -0.84657589
N     1.04265462   0.58433489   0.30069087
C    -0.00936184   1.03979564  -0.61169211
C    -0.11004101   2.55974027  -0.56664698
C    -1.36653314   0.37696494  -0.27122085
O    -2.39710199   1.01642908  -0.07545782
N    -1.33322656  -1.00377090  -0.27801625
C    -2.53123823  -1.78830306  -0.14028907
H     2.29117022  -1.68648371   1.83686091
H     2.98831133  -0.04892100   1.75111039
H     3.62208017  -1.32489197   0.69771358
H     1.03469757   0.96941951   1.23708975
H     0.25336148   0.73284614  -1.63171642
H     0.84796398   3.02111467  -0.82953153
H    -0.86782736   2.92443216  -1.26815102
H    -0.38454202   2.91080847   0.43464089
H    -0.50127760  -1.44525580  -0.67149289
H    -3.17986286  -1.35961879   0.62827248
H    -3.05743353  -1.79420305  -1.09842299
H    -2.24993047  -2.80750363   0.13397416
22
Unnamed conformer 19
C    -2.57332421   1.52342686   0.81855167
C    -1.67701148   0.69352252  -0.05867731
O    -1.50866166   0.93820428  -1.24993801
N    -1.02917646  -0.32635978   0.59436628
C    -0.07575576  -1.20036329  -0.09391574
C    -0.01714950  -2.55321682   0.60519071
C     1.32540348  -0.54586987  -0.16854298
O     2.34955743  -1.10300976   0.21877311
N     1.33307134   0.69407578  -0.77686895
C     2.56155480   1.38038649  -1.07602987
H    -2.81964060   0.99934549   1.74634462
H    -3.50515719   1.73036755   0.28515285
H    -2.06883294   2.46241327   1.06027449
H    -0.95032450  -0.26662786   1.60204234
H    -0.41797517  -1.34990975  -1.12552268
H     0.66461447  -3.23490044   0.08571513
H    -1.00799696  -3.01914907   0.63480542
H     0.33382906  -2.45221571   1.63853026
H     0.48332077   0.97453073  -1.26792985
H     2.33620477   2.43364309  -1.25766882
H     3.00125432   0.93553435  -1.97252729
H     3.26219601   1.28617192  -0.24212536
22
Unnamed conformer 20
C     3.34292349   0.54867261  -0.82993161
C     2.10737769   0.76961874   0.00038786
O     1.79576321   1.87627746   0.42844196
N     1.37014659  -0.37196718   0.22542300
C     0.03442379  -0.26806723   0.80193730
C    -0.27905760  -1.48769574   1.65692085
C    -0.98161106  -0.17066454  -0.35313505
O    -0.74890534  -0.62661121  -1.47244018
N    -2.18972128   0.40001453  -0.00299541
C    -3.20112399   0.63363412  -1.00292916
H     4.18423344   1.07045352  -0.36550503
H     3.17330098   0.94199485  -1.83552532
H     3.59564413  -0.51315489  -0.89905712
H     1.47264781  -1.10328234  -0.47058211
H    -0.03206261   0.63788197   1.41459782
H     0.44926120  -1.59088168   2.46830074
H    -0.24863477  -2.40831139   1.06286290
H    -1.27743272  -1.41277697   2.10050143
H    -2.20868381   0.98221301   0.82542041
H    -2.89672937   1.48398211  -1.61897732
H    -4.14329650   0.85914438  -0.49831632
H    -3.31846327  -0.25047415  -1.63539966
22
Unnamed conformer 21
C    -3.57064676   0.87502221  -0.09804199
C    -2.43214709  -0.04909428  -0.43450811
O    -2.56627717  -1.00132425  -1.19649891
N    -1.24539526   0.26952668   0.17095424
C    -0.01790332  -0.47333320  -0.08302064
C     0.03667666  -1.74714853   0.75198612
C     1.17334393   0.44744405   0.24513581
O     1.02568288   1.53537679   0.80218400
N     2.40568391  -0.04955878  -0.12663996
C     3.60099153   0.73910063   0.03588426
H    -4.43136133   0.28008228   0.21954855
H    -3.30957429   1.56091985   0.71261698
H    -3.83113145   1.45859911  -0.98489768
H    -1.14740886   1.13467689   0.69567615
H     0.02040679  -0.72029330  -1.15058649
H    -0.82239022  -2.39379413   0.54521844
H     0.94627715  -2.32037089   0.54536294
H     0.02767193  -1.51535313   1.82319110
H     2.43727092  -0.83572762  -0.76391436
H     3.59429876   1.24362324   1.00579669
H     4.46672335   0.07666053  -0.03421076
H     3.63920793   1.48496584  -0.76241467
22
Unnamed conformer 22
C     3.22738532   1.29533597   0.26654704
C     2.09179321   0.65183638  -0.48255886
O     1.82658247   0.94205523  -1.64465354
N     1.38791100  -0.27607971   0.25289368
C     0.12474372  -0.79619354  -0.25819309
C    -0.08733844  -2.23414740   0.19354970
C    -1.01441816   0.08984544   0.28333359
O    -0.90696268   0.73171593   1.32800525
N    -2.17754637   0.04035934  -0.45996040
C    -3.29517423   0.88436949  -0.11946696
H     4.11374813   1.31329902  -0.37360030
H     3.47406812   0.74027059   1.17603886
H     2.94513063   2.31625546   0.53626754
H     1.41418492  -0.14791709   1.25919189
H     0.12439083  -0.75043017  -1.35291813
H    -1.03005882  -2.63463808  -0.19376785
H    -0.12068753  -2.30679770   1.28669728
H     0.72748512  -2.87594328  -0.15800935
H    -2.10553153  -0.27467006  -1.41972984
H    -3.06424523   1.91069910  -0.41709496
H    -3.47977544   0.85058888   0.95766647
H    -4.17568504   0.53018619  -0.66023804
22
Unnamed conformer 23
C     3.50717886   0.85930276   0.71470699
C     2.22658653   1.10954643  -0.03418798
O     2.07578367   2.08412835  -0.76412741
N     1.25335668   0.16889897   0.17673918
C    -0.07425223   0.27648820  -0.41398888
C    -0.07660721  -0.21911125  -1.85523725
C    -1.04871294  -0.54768226   0.44958319
O    -0.65742552  -1.29157617   1.34914998
N    -2.38078769  -0.38899420   0.12664946
C    -3.41184500  -1.02737567   0.90546178
H     3.62022230   1.61869694   1.49282521
H     4.34637996   0.91733299   0.01612292
H     3.51685216  -0.12955820   1.18144212
H     1.37498982  -0.55326571   0.88179436
H    -0.38373503   1.32765104  -0.37615664
H     0.63491342   0.34306470  -2.46891166
H     0.20368732  -1.27742458  -1.90718388
H    -1.06714643  -0.11669490  -2.31020220
H    -2.64479013   0.38771159  -0.46682183
H    -4.33851644  -1.02102699   0.32712625
H    -3.12678597  -2.05581602   1.14288280
H    -3.54934613  -0.46429604   1.83233347
22
Unnamed conformer 24
C     2.38154186   1.15588928   1.61401137
C     1.60449791   0.75492392   0.39046009
O     1.46212824   1.50014579  -0.57477978
N     1.03056826  -0.49061462   0.46498726
C     0.19324760  -1.02006180  -0.61445933
C     0.23516875  -2.54336882  -0.60119626
C    -1.25958708  -0.49743897  -0.49906945
O    -2.24102039  -1.23627247  -0.48411775
N    -1.36037992   0.87998037  -0.48718343
C    -2.63537672   1.54394660  -0.54395802
H     3.31035827   1.64319614   1.30500745
H     1.78069803   1.84810659   2.20937644
H     2.63870760   0.28652874   2.22573903
H     0.90557518  -0.89850829   1.38324449
H     0.58970562  -0.66370112  -1.57337500
H    -0.16545830  -2.94427099   0.33686195
H    -0.35707726  -2.96004731  -1.42276367
H     1.26379320  -2.90522975  -0.70481442
H    -0.52190934   1.40805561  -0.73208222
H    -2.99406419   1.52453833  -1.57638422
H    -2.50396826   2.57784034  -0.21697180
H    -3.35714908   1.03636242   0.10146727
22
Unnamed conformer 25
C    -3.57680991   0.79897051  -0.20676765
C    -2.45990334  -0.20837466  -0.17274200
O    -2.63967696  -1.39308243  -0.43639234
N    -1.23821106   0.31087645   0.16538595
C    -0.02765697  -0.49970714   0.18974656
C     0.08128038  -1.28633544   1.49058069
C     1.18011370   0.44154393   0.01676168
O     1.06559862   1.66680054   0.05331980
N     2.38770331  -0.19880247  -0.17185075
C     3.58941428   0.55151622  -0.43656012
H    -3.89326765   0.94664536  -1.24261197
H    -3.26681545   1.76166074   0.20905949
H    -4.41491712   0.42281269   0.38629863
H    -1.10918114   1.31517865   0.25565050
H    -0.05568853  -1.18608675  -0.66480078
H    -0.78786731  -1.93651009   1.63464520
H     0.13881706  -0.61278467   2.35331446
H     0.97721809  -1.91547486   1.50195264
H     2.38081682  -1.18408273  -0.40498829
H     4.45026096  -0.09765490  -0.26119809
H     3.64243620   1.42672998   0.21651449
H     3.57633601   0.87616109  -1.48034700
22
Unnamed conformer 26
C     3.50376171   0.43330722   1.02727607
C     2.33888402   0.80157590   0.14931219
O     2.37710648   1.75514830  -0.62179192
N     1.24259079  -0.00708720   0.29315029
C    -0.00093948   0.23198637  -0.42765241
C     0.07070060  -0.32083265  -1.84613049
C    -1.14513334  -0.43315717   0.36164515
O    -0.93337296  -1.17919147   1.31783254
N    -2.41182940  -0.13143990  -0.09479645
C    -3.58133124  -0.60917635   0.59888398
H     3.34890370  -0.52889763   1.52322216
H     3.63564629   1.20641792   1.78874313
H     4.40527459   0.36148649   0.41265264
H     1.20871573  -0.70785922   1.02880645
H    -0.18181862   1.31309547  -0.45293590
H     0.22318271  -1.40617423  -1.83751944
H     0.89973944   0.12626231  -2.40443193
H    -0.85307437  -0.12109884  -2.39875717
H    -2.52238046   0.64508870  -0.73507735
H    -3.73489897   0.00524012   1.48993199
H    -4.44222366  -0.51757334  -0.06722785
H    -3.44750356  -1.65311236   0.89486432
22
Unnamed conformer 27
C     2.56351907   1.40088546   1.01740221
C     1.68301207   0.67904523   0.03490438
O     1.54588700   1.05199757  -1.12673939
N     1.01177893  -0.39859592   0.55878519
C     0.06920098  -1.18401441  -0.24202036
C    -0.01658896  -2.60351009   0.30576521
C    -1.32483197  -0.51134331  -0.27895019
O    -2.36230002  -1.09663190   0.02172785
N    -1.30836461   0.78680911  -0.75023969
C    -2.52400973   1.51351684  -1.00281470
H     2.06015090   2.31343810   1.34680253
H     2.78303083   0.77769635   1.88894227
H     3.50971286   1.65465129   0.53163387
H     0.90855429  -0.44671833   1.56487929
H     0.43563640  -1.22524074  -1.27532408
H    -0.39218202  -2.61064396   1.33535574
H    -0.69034352  -3.21858418  -0.30011287
H     0.96976703  -3.07978981   0.30853035
H    -0.44472309   1.10991843  -1.18795602
H    -2.94473823   1.17199382  -1.95217622
H    -2.28649580   2.57789218  -1.06459244
H    -3.24567240   1.33722825  -0.20075713
22
Unnamed conformer 28
C     2.52979692   1.31253184  -1.13885137
C     1.64796394   0.74914243  -0.05875356
O     1.44629265   1.33477744   1.00128084
N     1.05267113  -0.44676843  -0.37771898
C     0.11930190  -1.11163487   0.53518852
C     0.12625985  -2.61365143   0.27770881
C    -1.30689918  -0.52503480   0.39724531
O    -2.30110771  -1.21591714   0.18858175
N    -1.37394288   0.83923667   0.60182950
C    -2.63339605   1.53124200   0.66963399
H     1.99507798   2.11247638  -1.65731168
H     3.44208681   1.71008999  -0.68572132
H     2.81460392   0.54365712  -1.86262505
H     0.99209314  -0.69750192  -1.35683069
H     0.44592402  -0.92807355   1.56635999
H     1.13446386  -3.02443091   0.39826330
H    -0.53956568  -3.13484382   0.97368620
H    -0.20724099  -2.84433930  -0.74049419
H    -0.54558944   1.29056066   0.99171255
H    -2.45189602   2.59872036   0.52585346
H    -3.31288915   1.16005660  -0.10217029
H    -3.07400903   1.35970468   1.65521607
22
Unnamed conformer 29
C    -2.65254646   1.14971593   1.12027038
C    -1.73227247   0.53435122   0.10239503
O    -1.64649721   0.95299983  -1.04855620
N    -0.96516100  -0.49919834   0.58159343
C     0.02535064  -1.17830623  -0.25764705
C     0.23785036  -2.60189255   0.24299589
C     1.35801868  -0.39096592  -0.29326941
O     2.44542407  -0.89671891  -0.02667369
N     1.22595980   0.91518231  -0.72236392
C     2.37269743   1.74811269  -0.96916538
H    -2.80465454   0.48388484   1.97447464
H    -2.22093532   2.09048660   1.47141022
H    -3.62472188   1.33854737   0.65673050
H    -0.84103185  -0.56948048   1.58401498
H    -0.35410789  -1.21811800  -1.28629541
H    -0.70546115  -3.15858717   0.24483817
H     0.94973942  -3.13973355  -0.39205553
H     0.63037496  -2.60937252   1.26624868
H     0.33112521   1.17849734  -1.13686134
H     2.80390253   1.47221938  -1.93502368
H     3.12015711   1.60799349  -0.18377278
H     2.04678956   2.79038267  -0.99328758
22
Unnamed conformer 30
C    -2.66936248  -0.77426463  -1.37399514
C    -1.75227033   0.00904758  -0.47565634
O    -1.72290485   1.23641282  -0.47064842
N    -0.92106501  -0.76229444   0.29922804
C     0.07482409  -0.16519372   1.19270511
C     0.37206279  -1.11720610   2.34497203
C     1.36570139   0.20216641   0.42078471
O     2.48427553  -0.17251343   0.76388350
N     1.15672928   1.05020593  -0.64914288
C     2.25318853   1.62265506  -1.38383234
H    -2.76212583  -1.81216287  -1.04188794
H    -3.66355237  -0.31939815  -1.35571782
H    -2.27347349  -0.75781006  -2.39264033
H    -0.76251069  -1.72022668   0.01213354
H    -0.33407028   0.76743234   1.60100116
H     0.79614277  -2.06053985   1.98240496
H    -0.54242515  -1.35512240   2.89891770
H     1.08925384  -0.67540915   3.04483042
H     0.23763786   1.48845822  -0.72039763
H     1.87618150   1.99094160  -2.34057455
H     2.66708506   2.45213807  -0.80453559
H     3.03067786   0.87268345  -1.55183219
22
Unnamed conformer 31
C     3.62552893   0.69694789  -0.03067903
C     2.47457709  -0.24319743   0.20359962
O     2.62892500  -1.35421562   0.70075549
N     1.25392046   0.24925571  -0.17589767
C     0.01617508  -0.49069150   0.03431760
C    -0.18933620  -1.53631447  -1.05572990
C    -1.14598635   0.52114664   0.04622948
O    -0.99459328   1.69401674  -0.29662433
N    -2.35587586   0.00838616   0.46384825
C    -3.55107698   0.81328819   0.46040341
H     4.41111753   0.16970375  -0.57885982
H     3.32353573   1.56900761  -0.61726372
H     4.01147662   1.03645553   0.93406001
H     1.15467713   1.21722261  -0.47031155
H     0.06576964  -0.97389880   1.01721704
H    -1.10510724  -2.11256215  -0.88967343
H    -0.26979541  -1.06475143  -2.04188470
H     0.64813218  -2.24071886  -1.09250186
H    -2.44432082  -0.98563674   0.63255749
H    -4.28612394   0.34768662   1.12089184
H    -3.94213608   0.85178340  -0.55964651
H    -3.32948321   1.82708612   0.80438752
22
Unnamed conformer 32
C     2.53644541   0.78905586  -1.74086229
C     1.72248606   0.42288774  -0.53047436
O     1.77893215   1.05668918   0.51948873
N     0.87964557  -0.64573369  -0.71482417
C    -0.02602939  -1.10512424   0.34127239
C    -0.33046604  -2.58639741   0.15273642
C    -1.32540261  -0.26355139   0.36497012
O    -2.44866217  -0.75905014   0.31938148
N    -1.11200121   1.09272370   0.51518181
C    -2.20152266   2.01047245   0.71610400
H     3.55955987   1.01671284  -1.42931632
H     2.57328145  -0.03370214  -2.46047790
H     2.09192769   1.66498739  -2.22022156
H     0.64053513  -0.89976089  -1.66534711
H     0.46683047  -0.96607631   1.31155411
H    -0.97903151  -2.95928609   0.95252884
H    -0.83689601  -2.77017529  -0.80169095
H     0.59195385  -3.17703769   0.15863361
H    -0.16937960   1.38773980   0.77267412
H    -2.52699795   1.94421655   1.75755117
H    -3.03680073   1.75867935   0.05725535
H    -1.84840775   3.02173043   0.50211507
22
Unnamed conformer 33
C    -3.45633815   1.20770775  -0.41912367
C    -2.40127552   0.49586773   0.38306634
O    -2.59656321   0.12352116   1.53570833
N    -1.21522695   0.31158903  -0.27709640
C    -0.05728446  -0.30240733   0.35950249
C    -0.16322176  -1.82272659   0.34440687
C     1.20406968   0.16564274  -0.39183111
O     1.14108987   0.79142471  -1.45019505
N     2.39594312  -0.17986559   0.21145397
C     3.65524258   0.26636017  -0.32910704
H    -3.62089660   2.20032643   0.00814129
H    -4.38392377   0.62995805  -0.38121684
H    -3.16307677   1.31775346  -1.46682124
H    -1.05454671   0.74255531  -1.18366626
H     0.00103831   0.06132165   1.39219517
H     0.69337034  -2.28682559   0.84391890
H    -1.07238316  -2.16180724   0.85170300
H    -0.19405092  -2.20418447  -0.68264225
H     2.37655969  -0.49787335   1.17253284
H     3.79996011   1.31559634  -0.05852129
H     3.65777636   0.16725657  -1.41790880
H     4.45373795  -0.34119095   0.10277065
22
Unnamed conformer 34
C    -3.58219271   0.52144409   0.72612130
C    -2.24449904  -0.05581587   1.10135006
O    -2.05378242  -0.62009705   2.17399321
N    -1.26944963   0.10985557   0.15352984
C     0.10527963  -0.32432722   0.36644099
C     0.25559441  -1.81808409   0.10212788
C     1.01218843   0.49073869  -0.57576960
O     0.55409051   1.19549134  -1.47552671
N     2.36338466   0.36304590  -0.33261397
C     3.33946878   1.00677117  -1.17479131
H    -3.79251002   1.38161165   1.36707485
H    -4.35237342  -0.24193371   0.86652592
H    -3.60551664   0.84475286  -0.31824243
H    -1.43681355   0.68716009  -0.66634637
H     0.38356363  -0.09363901   1.40151638
H    -0.40943631  -2.40353365   0.74545846
H     1.28091498  -2.15535388   0.28444618
H     0.00824377  -2.05953897  -0.93799922
H     2.68529251  -0.31037556   0.35093939
H     4.28590422   1.06089472  -0.63197008
H     3.46629514   0.40865107  -2.08092485
H     3.00635306   2.01228188  -1.44533992
22
Unnamed conformer 35
C     2.36323906   1.16030376  -1.56096788
C     1.63959552   0.65825102  -0.34198004
O     1.64137271   1.26692281   0.72424143
N     0.94080090  -0.50802423  -0.53641250
C     0.13426080  -1.11071534   0.52795670
C     0.02343815  -2.61403753   0.30404117
C    -1.26391488  -0.45053309   0.60822095
O    -2.31250195  -1.08986122   0.57605535
N    -1.22782509   0.91780255   0.79244819
C    -2.42314450   1.67687906   1.04682153
H     2.48830611   0.36840067  -2.30486345
H     3.35560429   1.51416692  -1.26831942
H     1.79321376   1.98117202  -2.00355520
H     0.71057533  -0.76729026  -1.48771372
H     0.63168906  -0.93208468   1.48938663
H    -0.54708383  -3.09024824   1.10845225
H     1.01574149  -3.07655369   0.26996154
H    -0.48106641  -2.83919638  -0.64250854
H    -0.32565306   1.32903958   1.03502107
H    -3.23607616   1.33298401   0.40180286
H    -2.70729589   1.54134700   2.09363891
H    -2.21327541   2.73127526   0.85361682
22
Unnamed conformer 36
C    -2.66970375   0.83399514  -1.33998021
C    -1.77098370   0.31221372  -0.25292222
O    -1.84191576   0.70564551   0.90789339
N    -0.83741778  -0.60132297  -0.67744698
C     0.15467308  -1.17231107   0.23707677
C     0.59278990  -2.54253451  -0.26585262
C     1.36596578  -0.22308447   0.40712693
O     2.52887921  -0.57857809   0.23229383
N     1.02879577   1.04296571   0.84418270
C     2.03192814   2.00775331   1.20832768
H    -3.69520062   0.88436156  -0.96385350
H    -2.65849275   0.17865783  -2.21550318
H    -2.33408891   1.83160435  -1.63455725
H    -0.61731352  -0.62684678  -1.66542459
H    -0.30569123  -1.28918173   1.22606478
H     1.07170095  -2.47104010  -1.24906693
H     1.30943458  -3.00314673   0.42233775
H    -0.26674758  -3.21448479  -0.36294083
H     0.07438181   1.17841750   1.17977013
H     2.85756739   1.98618535   0.49206974
H     2.40830078   1.76176746   2.20470675
H     1.57313822   2.99896380   1.22007981
22
Unnamed conformer 37
C    -2.64988776   1.39919934   0.79573405
C    -1.75776019   0.45327421   0.04010026
O    -1.78718249   0.35312175  -1.18318076
N    -0.87878500  -0.24960553   0.82729680
C     0.10088756  -1.17529163   0.25286459
C     0.46100146  -2.24648362   1.27524578
C     1.36071806  -0.41946404  -0.23573534
O     2.50108105  -0.71945113   0.10906909
N     1.09500256   0.57875463  -1.15254488
C     2.15140115   1.27926682  -1.83298261
H    -2.68770391   1.14780957   1.85945688
H    -3.66434163   1.33411831   0.39287032
H    -2.27087127   2.41797427   0.68136477
H    -0.67891130   0.11296050   1.75130635
H    -0.34594567  -1.65960568  -0.62433044
H     1.16681286  -2.97028005   0.85417768
H    -0.43245351  -2.79074568   1.59969257
H     0.92421295  -1.80674768   2.16588892
H     0.15497950   0.60509287  -1.54945128
H     1.74259047   2.20004474  -2.25508052
H     2.53386741   0.64199817  -2.63457174
H     2.96128771   1.51405986  -1.13719049
22
Unnamed conformer 38
C     3.68078080   0.21198168  -0.19538581
C     2.37462051  -0.32559748  -0.71346305
O     2.30569738  -1.00500418  -1.73277903
N     1.28268431   0.01365732   0.04093287
C    -0.07342849  -0.36000669  -0.33993405
C    -0.37929003  -1.79817400   0.06242022
C    -1.04628784   0.61774632   0.34717630
O    -0.67655749   1.39897501   1.22414498
N    -2.35049787   0.54255539  -0.09389480
C    -3.38975348   1.34243626   0.50320125
H     4.05327325   0.97260418  -0.88650485
H     4.40088816  -0.60776104  -0.12393886
H     3.57013873   0.65926143   0.79631344
H     1.36812200   0.67628703   0.80716400
H    -0.17180370  -0.24204110  -1.42549690
H    -1.38820063  -2.09307284  -0.24320572
H     0.32781756  -2.49718442  -0.39613665
H    -0.31300720  -1.92432483   1.14917660
H    -2.61651675  -0.18923725  -0.74048587
H    -4.23524874   1.38618536  -0.18712348
H    -3.69976536   0.86898160   1.43842520
H    -3.02366511   2.35173222   0.70939422
22
Unnamed conformer 39
C     3.45544181   0.05197691   1.12036073
C     2.33020006   0.70538390   0.36519654
O     2.40229078   1.85883977  -0.04675560
N     1.22855778  -0.08957303   0.18937680
C     0.01783279   0.39129998  -0.46329973
C     0.15148374   0.33472560  -1.98045397
C    -1.15992707  -0.47970348   0.01505355
O    -0.99035688  -1.50168392   0.68026480
N    -2.40537064  -0.02628466  -0.36857672
C    -3.60420023  -0.68851657   0.08021746
H     3.27889663  -1.01745198   1.26504819
H     3.55390315   0.52964292   2.09865950
H     4.38301966   0.17320434   0.55418976
H     1.16239380  -0.99272117   0.65128995
H    -0.16162998   1.42310092  -0.13874852
H     1.00424611   0.92844564  -2.32569617
H    -0.74716502   0.71849927  -2.47421316
H     0.30330160  -0.69517723  -2.32329982
H    -2.48766792   0.91913302  -0.72155162
H    -3.48359823  -1.77355169   0.02131109
H    -3.79657884  -0.39914979   1.11670861
H    -4.43507309  -0.37043875  -0.55358766
22
Unnamed conformer 40
C     3.52050120   0.20544752  -0.82650221
C     2.34313791  -0.60205522  -0.35201580
O     2.37194138  -1.82720334  -0.29247827
N     1.24705502   0.14313635  -0.00592981
C    -0.00686192  -0.46674675   0.41693595
C     0.04129630  -0.85882327   1.88893378
C    -1.14044849   0.54414111   0.15679174
O    -0.91587625   1.70936067  -0.17113323
N    -2.41326098   0.03998835   0.32903847
C    -3.57313484   0.84335446   0.03500915
H     4.41219051  -0.10589999  -0.27550400
H     3.66621175   0.03035991  -1.89563281
H     3.37079920   1.27588087  -0.66054204
H     1.22272117   1.14331697  -0.18611208
H    -0.18522618  -1.35283344  -0.20370119
H     0.86276705  -1.55512932   2.08703292
H    -0.89040176  -1.33988432   2.20384511
H     0.19099741   0.02103112   2.52512264
H    -2.53165665  -0.96399061   0.38548604
H    -3.43751660   1.85963536   0.41461221
H    -3.71123030   0.87481931  -1.04896332
H    -4.44400491   0.38209427   0.50623814
22
Unnamed conformer 41
C     3.48194503   0.17133690   0.10797531
C     2.16929427  -0.56457358   0.09366381
O     2.01322308  -1.61256897  -0.52470146
N     1.17523116   0.04536829   0.82658834
C    -0.20152362  -0.42081563   0.70601222
C    -0.94813145  -0.23944897   2.01995461
C    -0.89249550   0.40134527  -0.39970706
O    -0.52040544   1.53407329  -0.70525447
N    -1.99853320  -0.20968484  -0.95749358
C    -2.69045249   0.40597940  -2.06184268
H     3.51211223   0.92318741   0.90165987
H     4.29090431  -0.54318430   0.28346069
H     3.62644587   0.66407756  -0.85691814
H     1.27127903   1.04871620   0.94414694
H    -0.20775278  -1.47906823   0.42214604
H    -0.45624813  -0.79421075   2.82600862
H    -1.98056217  -0.59551744   1.93974762
H    -0.98345066   0.81557506   2.31498006
H    -2.07603005  -1.21467666  -0.85965018
H    -2.08379298   0.29229437  -2.96423042
H    -2.85018432   1.46902952  -1.86222840
H    -3.65087220  -0.09723388  -2.19431777
22
Unnamed conformer 42
C    -3.52475158   0.04462198   0.89647398
C    -2.27523494   0.77608612   0.48767297
O    -2.18864411   1.99903353   0.53511524
N    -1.25374497  -0.03577557   0.07057482
C     0.05460163   0.48747357  -0.30113221
C     0.04520550   1.02432977  -1.72782862
C     1.08139877  -0.65201817  -0.15340629
O     0.73881850  -1.82061379   0.02857257
N     2.39980708  -0.25890329  -0.24517311
C     3.47232975  -1.22011643  -0.19881008
H    -3.47332231  -1.01803432   0.64372077
H    -3.66007736   0.14477488   1.97656632
H    -4.38066114   0.48077211   0.37414264
H    -1.32491687  -1.04583466   0.16114725
H     0.31909046   1.28629980   0.40169202
H     1.01863987   1.44157452  -2.00460574
H    -0.18959193   0.22931181  -2.44488136
H    -0.70462534   1.81283763  -1.84989674
H     2.61858817   0.69594329  -0.49967173
H     4.39836257  -0.69659192   0.04960392
H     3.26474451  -1.98771803   0.55146386
H     3.56398374  -1.68745284  -1.18273440
22
Unnamed conformer 43
C    -2.32055318   1.67379708   1.19427159
C    -1.59131240   0.85930377   0.16157764
O    -1.49165334   1.21432574  -1.00946468
N    -1.00853646  -0.28506202   0.64852234
C    -0.21261857  -1.16944235  -0.20646979
C    -0.24624137  -2.58947995   0.34558100
C     1.24100971  -0.65350255  -0.34044362
O     2.22598738  -1.34871310  -0.10419997
N     1.33520725   0.63837361  -0.81978397
C     2.60350456   1.22743699  -1.15759665
H    -3.26350043   2.02937905   0.76993304
H    -1.69977199   2.52592362   1.48262431
H    -2.54850638   1.07889926   2.08324128
H    -0.84465654  -0.34361923   1.64597440
H    -0.64911445  -1.17088617  -1.21302864
H     0.31460139  -3.27498723  -0.29853429
H     0.19380606  -2.63711026   1.34821132
H    -1.27635051  -2.95487568   0.41706195
H     0.48489935   1.05386586  -1.20216390
H     3.35320879   0.97364345  -0.40347294
H     2.92048765   0.84134462  -2.12990902
H     2.48010350   2.31138546  -1.21193138
22
Unnamed conformer 44
C     3.30932157  -0.96210511   0.53638751
C     2.22239647   0.05218257   0.30264564
O     2.20705997   1.13824842   0.87295588
N     1.25986339  -0.35270196  -0.59566773
C     0.03013621   0.41918544  -0.73452234
C    -0.49321863   0.34551162  -2.16190910
C    -1.01761489  -0.16757751   0.23187959
O    -0.97906935  -1.33818357   0.61013679
N    -2.03225663   0.70594728   0.57137747
C    -3.03269639   0.32016829   1.53453713
H     3.16207125  -1.42517348   1.51545792
H     4.28008036  -0.45960307   0.50690367
H     3.30411836  -1.74046923  -0.23188810
H     1.13943503  -1.35631448  -0.68517343
H     0.21975264   1.46425789  -0.46547565
H    -0.71984869  -0.68755967  -2.44959875
H    -1.41207499   0.93013725  -2.27612977
H     0.24891226   0.73257069  -2.86820924
H    -1.85554375   1.69602026   0.45257128
H    -3.85776830   1.03420688   1.48371182
H    -3.39706339  -0.68764757   1.31779103
H    -2.58599250   0.33889906   2.53221839
22
Unnamed conformer 45
C    -3.36964717   0.89147070   0.05153005
C    -2.19607282   0.01036293   0.38498635
O    -2.05644030  -0.50318739   1.49033550
N    -1.30625581  -0.15691827  -0.65309402
C    -0.01152177  -0.77985441  -0.40222828
C     0.45762345  -1.55685192  -1.62408712
C     1.00291188   0.33399615  -0.07624112
O     0.86125616   1.48897240  -0.47729881
N     2.10849616  -0.09188168   0.63376837
C     3.09551932   0.85792018   1.08214715
H    -4.28677320   0.41771594   0.41234494
H    -3.23836418   1.86151185   0.53781953
H    -3.46475265   1.04221123  -1.02752354
H    -1.28785921   0.59121969  -1.33844296
H    -0.08910762  -1.45597274   0.45646914
H    -0.26438943  -2.33640209  -1.88947813
H     0.57263041  -0.89936271  -2.49347927
H     1.42550110  -2.03490338  -1.44021322
H     2.02633220  -0.95908405   1.15029161
H     3.35220757   1.54663730   0.27269334
H     2.68391514   1.42217100   1.92325741
H     3.98479078   0.31022930   1.40216122
22
Unnamed conformer 46
C    -3.31633965   1.07288381   0.12564425
C    -2.23063780   0.09054142  -0.22231493
O    -2.24012710  -0.55255705  -1.26699780
N    -1.23920256  -0.01120676   0.72851238
C    -0.01173369  -0.73544538   0.41848367
C     0.55375491  -1.39566664   1.66792022
C     1.01160446   0.27108061  -0.14337888
O     0.97073376   1.47052223   0.12966540
N     2.00931277  -0.29842385  -0.91021909
C     2.98396141   0.53317633  -1.57043353
H    -3.19437756   1.97181116  -0.48406775
H    -4.28954377   0.61737323  -0.07717331
H    -3.28282372   1.35052146   1.18295999
H    -1.10871314   0.80737052   1.31387981
H    -0.21695144  -1.49869763  -0.34036346
H     0.79643059  -0.65193047   2.43559701
H     1.47116809  -1.94893190   1.44124875
H    -0.17023407  -2.09515293   2.09918791
H     1.82877244  -1.21209152  -1.30796766
H     2.50809739   1.02212930  -2.42468270
H     3.80481478  -0.09985907  -1.91488046
H     3.36203391   1.29255312  -0.88061981
22
Unnamed conformer 47
C     2.49033238   1.83909764  -0.21914841
C     1.62634000   0.72537952   0.30506316
O     1.41039141   0.56529432   1.50299961
N     1.06383223  -0.06342955  -0.66842588
C     0.15083202  -1.16117939  -0.33979066
C     0.19891978  -2.21895900  -1.43577764
C    -1.29130288  -0.64018799  -0.12533053
O    -2.26636633  -1.09663025  -0.71712616
N    -1.39573465   0.33648669   0.84564070
C    -2.67374263   0.82456156   1.29080336
H     2.79504867   1.65449640  -1.25317127
H     3.39205749   1.91262126   0.39496713
H     1.93275442   2.77798484  -0.17187859
H     1.00850315   0.31250161  -1.60694120
H     0.47405561  -1.61583093   0.60493665
H    -0.12984919  -1.81011581  -2.39803338
H    -0.45100138  -3.06631860  -1.19301679
H     1.21831925  -2.59775240  -1.56650134
H    -0.57951133   0.48879263   1.43931930
H    -2.52211529   1.77403370   1.80910499
H    -3.34404158   0.96632469   0.43888023
H    -3.10772113   0.09282904   1.97721955
22
Unnamed conformer 48
C     3.34697871   0.14723909   0.97006487
C     2.19921025  -0.40920349   0.17142844
O     2.08275448  -1.60855095  -0.05885752
N     1.30446083   0.54292275  -0.26474567
C     0.02827918   0.12785892  -0.83606170
C    -0.43217773   1.11540274  -1.89884007
C    -1.01103488   0.06889596   0.30075645
O    -0.90236758   0.74229347   1.32526130
N    -2.09893338  -0.74027372   0.03708376
C    -3.10556934  -0.95760337   1.04546548
H     3.19562204  -0.08902419   2.02645709
H     3.42834484   1.23170496   0.85414245
H     4.27908041  -0.30458846   0.61965214
H     1.26084093   1.39005350   0.29222692
H     0.13082637  -0.86883547  -1.27945926
H     0.30690148   1.19295333  -2.70331547
H    -1.38590770   0.80564741  -2.33881769
H    -0.57175428   2.11734768  -1.47695457
H    -1.99009880  -1.45187640  -0.67521118
H    -2.70072365  -1.62890012   1.80751766
H    -3.97771222  -1.41519084   0.57306820
H    -3.38701999  -0.00827282   1.50913838
22
Unnamed conformer 49
C     2.63093937   0.19214718   1.62913956
C     1.76533758  -0.04458044   0.42234975
O     1.88748159  -1.03426491  -0.29383346
N     0.80027978   0.91130654   0.21922590
C    -0.16606713   0.81110131  -0.87747719
C    -0.64715938   2.20252406  -1.27103743
C    -1.35305961  -0.10488828  -0.49122590
O    -2.52788810   0.24347569  -0.57914979
N    -0.97717651  -1.37700159  -0.10648726
C    -1.94850508  -2.41038850   0.13501563
H     2.30194935  -0.46242828   2.44027031
H     3.67078044  -0.02912635   1.37336676
H     2.57475401   1.23231178   1.96235678
H     0.54218379   1.49578013   1.00470279
H     0.32960469   0.35082614  -1.74127551
H     0.19606448   2.83754335  -1.56339463
H    -1.16193821   2.69575405  -0.43862836
H    -1.34500522   2.15341502  -2.11362189
H    -0.00840193  -1.64672092  -0.28141404
H    -2.80115292  -2.00847199   0.68875353
H    -1.47220088  -3.20802623   0.70950073
H    -2.29082010  -2.80028777  -0.82713629
22
Unnamed conformer 50
C    -3.63095185  -0.66469459   0.27590076
C    -2.47754834   0.25266094   0.57850480
O    -2.63321452   1.33999617   1.12514838
N    -1.25327782  -0.23216844   0.20083574
C    -0.01422586   0.48559233   0.47156833
C     0.22243675   1.58022101  -0.56261952
C     1.13919364  -0.53618749   0.45866141
O     0.98547775  -1.68990069   0.05690261
N     2.34423038  -0.05500433   0.92504166
C     3.53267890  -0.86966044   0.90741035
H    -3.32386813  -1.51044466  -0.34552822
H    -4.03970238  -1.04638069   1.21514631
H    -4.40061751  -0.10472593  -0.26232549
H    -1.15576851  -1.18581573  -0.13759674
H    -0.08038306   0.92168716   1.47530370
H     1.13919180   2.13951278  -0.35042630
H     0.31960545   1.15563243  -1.56841767
H    -0.60834197   2.29317023  -0.58264909
H     2.43719345   0.92896980   1.14303061
H     3.29574791  -1.89668773   1.19774327
H     3.94460407  -0.86289596  -0.10510254
H     4.25753986  -0.44287617   1.60437252
22
Unnamed conformer 51
C    -2.43321978   1.53206218   1.15978130
C    -1.63632379   0.77559642   0.13295846
O    -1.52312073   1.15835598  -1.02807242
N    -1.01002666  -0.34777735   0.61472481
C    -0.14784013  -1.17424399  -0.23392879
C    -0.12481175  -2.60488730   0.29059684
C     1.28105843  -0.58398074  -0.31769362
O     2.29305391  -1.23382658  -0.06694402
N     1.32299765   0.72025624  -0.77023206
C     2.56868171   1.37835803  -1.06154581
H    -1.86412329   2.40815375   1.48107366
H    -3.38108775   1.84859557   0.71593023
H    -2.65482059   0.90899363   2.03087891
H    -0.87035773  -0.41791642   1.61510974
H    -0.55641516  -1.17741720  -1.25213705
H    -1.13677467  -3.02248630   0.32651639
H     0.48698497  -3.24866879  -0.35018353
H     0.28988693  -2.65046282   1.30406873
H     0.46347047   1.10040074  -1.16844690
H     2.93079572   1.02793165  -2.03160319
H     2.39238563   2.45567991  -1.09924452
H     3.30960663   1.14728338  -0.29160715
22
Unnamed conformer 52
C    -3.45798281   0.39093285   0.06341544
C    -2.11939589  -0.08379134   0.56105280
O    -1.80497293  -0.03020286   1.74566003
N    -1.29347416  -0.57203109  -0.42730109
C     0.10960270  -0.83821323  -0.13092003
C     0.62332149  -2.00500489  -0.96245529
C     0.92016561   0.43025119  -0.46256921
O     0.53652375   1.25696732  -1.28975857
N     2.13528699   0.51665961   0.18844210
C     2.95862891   1.69028250   0.03978330
H    -4.24149489   0.00722461   0.72267867
H    -3.65925380   0.03349037  -0.95041349
H    -3.47397691   1.48383028   0.06693299
H    -1.46561894  -0.21026465  -1.35963310
H     0.22320269  -1.06731423   0.93450215
H     0.54905645  -1.79210464  -2.03507870
H     1.67422459  -2.21657921  -0.73891839
H     0.04147600  -2.91089475  -0.76182600
H     2.25461954  -0.03405418   1.02990613
H     3.02179198   1.97655000  -1.01354297
H     2.51267841   2.50755393   0.61289686
H     3.95559122   1.46671244   0.42612594
22
Unnamed conformer 53
C    -2.60173974   1.63504647  -0.41284390
C    -1.64254852   0.71638131   0.29260310
O    -1.34557999   0.85433406   1.47585768
N    -1.09349767  -0.25505638  -0.50812673
C    -0.09822503  -1.20240530   0.00038824
C    -0.14883471  -2.49079074  -0.81195330
C     1.32040722  -0.58247127  -0.01810299
O     2.28361309  -1.12274357  -0.55629398
N     1.42447942   0.60005928   0.68785342
C     2.69545704   1.23548019   0.91268011
H    -2.95661841   1.19749271  -1.35025564
H    -3.46759240   1.81219356   0.23102583
H    -2.09958358   2.58201490  -0.62668295
H    -1.11746429  -0.11011996  -1.50993298
H    -0.33609238  -1.43406373   1.04606732
H     0.09624333  -2.30749898  -1.86434046
H     0.56413537  -3.22705460  -0.42602776
H    -1.14973239  -2.93426883  -0.77618727
H     0.63787093   0.85259941   1.28730509
H     3.30348796   1.20073051   0.00479190
H     2.51873813   2.27309466   1.20465711
H     3.21307663   0.70704631   1.71751817
22
Unnamed conformer 54
C     3.46439189  -0.59800935  -1.05459453
C     2.44368936  -0.46720989   0.04287545
O     2.70830063  -0.71570763   1.21487943
N     1.20584462  -0.06018817  -0.37968677
C     0.07433883   0.06280296   0.53006479
C     0.11811242   1.38525210   1.28639403
C    -1.21922578  -0.05038626  -0.29967483
O    -1.20942174  -0.04891150  -1.53077394
N    -2.37627976  -0.14384333   0.44623600
C    -3.65314903  -0.34466191  -0.19128669
H     4.36841709  -0.05373995  -0.76796798
H     3.69951485  -1.65565818  -1.19958762
H     3.09937865  -0.18414308  -1.99866084
H     0.99617786   0.01600640  -1.37147988
H     0.10677837  -0.77616664   1.23521151
H     0.05798325   2.23463949   0.59630929
H    -0.71721346   1.47029074   1.98899573
H     1.04789861   1.48562881   1.85588579
H    -2.29889015  -0.35485518   1.43348582
H    -3.73555864  -1.39399548  -0.48652348
H    -4.44128582  -0.09792343   0.52369081
H    -3.73980206   0.29077947  -1.07673784
22
Unnamed conformer 55
C     3.56944936  -0.87267194  -0.07736983
C     2.45064360  -0.09328205   0.55840326
O     2.62001563   0.59498327   1.55988556
N     1.23951236  -0.22685671  -0.06753815
C     0.02745481   0.40289168   0.43982139
C    -0.05097769   1.86498655   0.01679878
C    -1.18138086  -0.38764435  -0.09716684
O    -1.06217847  -1.26419549  -0.95341027
N    -2.39533557  -0.02748522   0.45100326
C    -3.60102511  -0.74017242   0.11107946
H     3.86005830  -1.68884677   0.58921281
H     4.42112167  -0.20644477  -0.23997926
H     3.27305885  -1.29270136  -1.04251688
H     1.11592109  -0.90109279  -0.81823776
H     0.03173096   0.32647067   1.53357447
H    -0.94828530   2.34800549   0.41702566
H    -0.08458572   1.95682286  -1.07486376
H     0.81951789   2.42721203   0.37040760
H    -2.39740430   0.53762891   1.29113356
H    -3.63479624  -0.93876640  -0.96350797
H    -4.45917025  -0.13167321   0.40526876
H    -3.61334500  -1.68716798   0.65706779
22
Unnamed conformer 56
C     2.19495153  -1.89497491  -0.96874401
C     1.51468610  -0.94629567  -0.02052404
O     1.36691435  -1.19775613   1.17222840
N     1.03902204   0.20087303  -0.60943074
C     0.27746977   1.18509197   0.16040436
C     0.35118576   2.54760579  -0.51635324
C    -1.18330670   0.70092368   0.27826868
O    -2.08775771   1.10746977  -0.44650108
N    -1.35898310  -0.28583228   1.22944928
C    -2.61556549  -0.97131978   1.37304013
H     1.51755354  -2.72225652  -1.19541523
H     3.10489072  -2.27927350  -0.49973818
H     2.47513539  -1.39556855  -1.90052689
H     0.87749233   0.18246343  -1.60937638
H     0.70274400   1.26081101   1.16852726
H    -0.04130776   2.51128898  -1.53901132
H    -0.23126298   3.29055627   0.03866721
H     1.38788840   2.89643377  -0.57311827
H    -0.51316318  -0.74583852   1.57158329
H    -3.44375895  -0.25971189   1.31879965
H    -2.62455714  -1.48318573   2.33790377
H    -2.71027093  -1.70150423   0.56499633
22
Unnamed conformer 57
C    -2.52450970  -1.65730637  -0.44744240
C    -1.63497558  -0.77838909   0.38795123
O    -1.40285529  -1.00851105   1.57136887
N    -1.06936686   0.27031618  -0.29514454
C    -0.13330684   1.19532002   0.34889359
C    -0.17472972   2.54610121  -0.35542954
C     1.30160063   0.61395451   0.36416649
O     2.27799565   1.22109776  -0.06866129
N     1.39940415  -0.62109477   0.97463492
C     2.67338169  -1.24204007   1.22181664
H    -1.98329214  -2.57029324  -0.70854660
H    -2.83740030  -1.15091823  -1.36494079
H    -3.42049663  -1.90928282   0.12646230
H    -1.03122472   0.20997293  -1.30514520
H    -0.43780453   1.33194768   1.39402739
H     0.49288206   3.26430721   0.13224245
H    -1.18860044   2.96042372  -0.34309823
H     0.13593110   2.45839593  -1.40279514
H     0.58726634  -0.94247744   1.50285563
H     3.12798420  -0.77099990   2.09725627
H     2.51061962  -2.30460900   1.41567583
H     3.33149732  -1.11591517   0.35801845
22
Unnamed conformer 58
C    -1.96227982   2.40032780  -0.02726796
C    -1.39183347   1.08504839   0.42691216
O    -1.20420443   0.82045704   1.61101503
N    -1.05572909   0.22910633  -0.59324104
C    -0.43676752  -1.07351617  -0.33500307
C    -0.76047885  -2.03412419  -1.47291381
C     1.09232749  -0.93342063  -0.13645833
O     1.91583271  -1.58691152  -0.77214587
N     1.44877898  -0.05927418   0.87170572
C     2.81415221   0.07837008   1.30356361
H    -1.18979562   3.17019282   0.04493562
H    -2.80879646   2.66399999   0.61268355
H    -2.31846176   2.34525497  -1.05985440
H    -0.92340880   0.62380475  -1.51622581
H    -0.84799892  -1.47892854   0.59785330
H    -0.35542993  -1.67359809  -2.42534980
H    -0.33599058  -3.02564397  -1.28305280
H    -1.84363081  -2.14432711  -1.59285447
H     0.70423677   0.26064059   1.49233708
H     2.90902940   1.01043545   1.86514796
H     3.06450071  -0.76910591   1.94702832
H     3.48594781   0.09121210   0.44118498
22
Unnamed conformer 59
C    -2.45423388   1.61842166   0.90879925
C    -1.63621401   0.72017124   0.02230923
O    -1.51661892   0.91437757  -1.18421830
N    -1.00449425  -0.30641467   0.68269888
C    -0.10236287  -1.21669367  -0.02359158
C     0.01619297  -2.52992296   0.73880740
C     1.27396268  -0.53450969  -0.17369862
O     2.22174555  -0.75908361   0.57455070
N     1.31286852   0.40508389  -1.18609400
C     2.45825144   1.25485618  -1.37449678
H    -3.40632501   1.83640459   0.41722310
H    -1.90546383   2.54776494   1.08146786
H    -2.66684687   1.14369876   1.87086227
H    -0.85549600  -0.20154959   1.67925567
H    -0.50396937  -1.41686129  -1.02436581
H     0.70446230  -3.21431035   0.23168974
H    -0.95960225  -3.02091540   0.81884556
H     0.39094771  -2.37249169   1.75663545
H     0.41224276   0.71515758  -1.55596027
H     2.43977076   2.04072208  -0.61479483
H     2.40101283   1.70052243  -2.37006478
H     3.38016973   0.67557200  -1.27586016
22
Unnamed conformer 60
C    -3.55196295   0.65506451  -0.78211407
C    -2.43364843  -0.30734259  -0.48795833
O    -2.58909610  -1.52358136  -0.53225377
N    -1.23933575   0.28844518  -0.17951347
C    -0.02810694  -0.48093610   0.07358277
C     0.00150113  -1.00497737   1.50443052
C     1.18272883   0.43213704  -0.19984283
O     1.05888270   1.63989276  -0.40402966
N     2.40370600  -0.21048625  -0.18796066
C     3.61552354   0.49766522  -0.51534111
H    -4.42427165   0.38296930  -0.18154126
H    -3.80196381   0.59822553  -1.84475045
H    -3.27504846   1.68449534  -0.53845044
H    -1.12230087   1.29383127  -0.27396341
H     0.00297056  -1.31707509  -0.63497915
H    -0.00058297  -0.17935196   2.22528350
H    -0.87127305  -1.63166299   1.71521457
H     0.89853848  -1.60435050   1.69077946
H     2.41764438  -1.22204676  -0.22953780
H     3.62124138   1.48149804  -0.03852141
H     4.46710592  -0.09096038  -0.16668701
H     3.66774805   0.61854716  -1.60056763
22
Unnamed conformer 61
C    -2.03123510   2.25208088  -0.64424596
C    -1.53218979   0.97383046  -0.02887764
O    -1.69883916   0.70291594   1.15693256
N    -0.83597360   0.16237922  -0.89093729
C    -0.23156014  -1.09631875  -0.44710256
C    -0.11725097  -2.05786034  -1.62386459
C     1.14746218  -0.84937251   0.21205853
O     2.17272044  -1.43034962  -0.13524708
N     1.11054399   0.03057892   1.27596992
C     2.26266640   0.25916576   2.10666455
H    -2.04738653   2.18936321  -1.73600563
H    -1.37780291   3.07446495  -0.34200863
H    -3.05068210   2.44260206  -0.29771848
H    -0.45580978   0.58165041  -1.73051084
H    -0.87853909  -1.54663621   0.31599923
H    -1.09965128  -2.24408024  -2.07103379
H     0.30062304  -3.01920653  -1.30677760
H     0.53321938  -1.65240980  -2.40723982
H     0.18958827   0.28488549   1.63519208
H     3.16428122   0.33562614   1.49313731
H     2.36510795  -0.57904062   2.80082044
H     2.11070757   1.18573119   2.66479529
22
Unnamed conformer 62
C    -3.31788476   1.06260151  -0.21353169
C    -2.12893423   0.27787990  -0.69874218
O    -1.87281933   0.14826895  -1.89148447
N    -1.36624908  -0.26783936   0.31015348
C    -0.06201993  -0.84260483   0.00039453
C     0.25157714  -2.00112039   0.93648207
C     1.00157140   0.26048623   0.16763584
O     0.83455543   1.22605825   0.91239040
N     2.17359202   0.03221644  -0.52667168
C     3.22115235   1.02215397  -0.53142763
H    -4.19572363   0.78314635  -0.80264493
H    -3.11570099   2.12992904  -0.33447830
H    -3.53286916   0.85623767   0.83876133
H    -1.41354395   0.21222586   1.20293132
H    -0.05253758  -1.19474596  -1.03711393
H     1.22592809  -2.44365771   0.70425245
H     0.27772919  -1.67206397   1.98166202
H    -0.50900393  -2.78470250   0.85312755
H     2.13628965  -0.61207149  -1.30711306
H     3.39540322   1.39272701   0.48235126
H     2.91771246   1.85211523  -1.17512915
H     4.13177564   0.56275979  -0.92245216
22
Unnamed conformer 63
C     2.58628500   1.01016176   1.34416723
C     1.74559825   0.40879062   0.25180872
O     1.82994281   0.76730739  -0.91937194
N     0.84656070  -0.53619704   0.68197772
C    -0.08981373  -1.18576174  -0.23883388
C    -0.47390188  -2.55917627   0.29838676
C    -1.34114041  -0.30462713  -0.47327307
O    -2.48959496  -0.71222301  -0.31762006
N    -1.05456523   0.96187429  -0.94384063
C    -2.09332993   1.86268484  -1.36716059
H     2.19364186   1.99869952   1.59568390
H     2.58259111   0.38391679   2.24079221
H     3.61830320   1.09973435   0.99407251
H     0.60004205  -0.54058381   1.66401926
H     0.40362691  -1.31147282  -1.21063847
H     0.41463298  -3.18357879   0.44112854
H    -1.14714404  -3.07735863  -0.39268585
H    -0.98345385  -2.47988103   1.26546824
H    -0.09885869   1.13411334  -1.25821412
H    -2.93688997   1.82297576  -0.67289807
H    -1.68384389   2.87478695  -1.40025139
H    -2.42868829   1.56581467  -2.36432660
22
Unnamed conformer 64
C    -3.36576657   0.89925530   0.08230028
C    -2.19008815   0.01572006  -0.23702138
O    -2.03770393  -0.49732526  -1.34091973
N    -1.31380801  -0.15436596   0.81206017
C    -0.01743410  -0.78006841   0.57704801
C     0.43450467  -1.55904884   1.80411853
C     1.00355757   0.33170592   0.26473459
O     0.85947903   1.48670523   0.66486086
N     2.11703708  -0.09616751  -0.43160556
C     3.11179168   0.85171070  -0.86677432
H    -3.22617935   1.86934278  -0.40157858
H    -4.27934961   0.42784506  -0.29037738
H    -3.47410153   1.04944081   1.16018353
H    -1.30234990   0.59321684   1.49816539
H    -0.08572686  -1.45536493  -0.28308440
H    -0.29256449  -2.33714942   2.05978017
H     1.40353539  -2.03916863   1.63208852
H     0.54003420  -0.90247525   2.67540343
H     2.03942357  -0.96279856  -0.94978905
H     2.71211308   1.41751684  -1.71257813
H     4.00378276   0.30222816  -1.17596526
H     3.35981348   1.53924505  -0.05362191
22
Unnamed conformer 65
C    -3.42106211   0.56896863  -0.31381297
C    -2.19311557   0.21226816   0.47974428
O    -2.02275588   0.59939944   1.63132338
N    -1.29183118  -0.57440729  -0.20304217
C     0.04030875  -0.79329198   0.34905638
C     0.56215979  -2.17072284  -0.03450285
C     0.97889914   0.29141864  -0.21526428
O     0.76287320   0.85265043  -1.28915207
N     2.10834218   0.52027382   0.54617322
C     3.03003295   1.56759185   0.18424435
H    -3.52328561  -0.06247871  -1.20091493
H    -3.35471113   1.61464401  -0.62502647
H    -4.30605569   0.42455320   0.31203139
H    -1.32083506  -0.49596803  -1.21435754
H     0.00513347  -0.70379841   1.44051008
H     1.55881795  -2.34587310   0.38397573
H    -0.10665964  -2.95589692   0.33375677
H     0.63591974  -2.27925040  -1.12268672
H     2.08192770   0.23660031   1.51798543
H     3.24293170   1.52981408  -0.88752139
H     2.58044500   2.53282394   0.43215699
H     3.95252030   1.43068119   0.75297248
22
Unnamed conformer 66
C    -3.33591058  -0.93927779  -0.57361226
C    -2.10573322  -0.15336059  -0.93942469
O    -1.79482692   0.07079152  -2.10480934
N    -1.37245087   0.27877195   0.14359290
C    -0.04056851   0.83681878  -0.06132808
C     0.26441934   1.89958079   0.98475039
C     0.98369382  -0.30954599   0.05154199
O     0.75785584  -1.33016951   0.70131705
N     2.19051001  -0.05910473  -0.57189632
C     3.20934189  -1.07741593  -0.62093996
H    -3.15847903  -1.99797813  -0.77944165
H    -3.59031099  -0.81804992   0.48313187
H    -4.17936986  -0.58240232  -1.17107887
H    -1.47160822  -0.27497960   0.98815084
H     0.02351912   1.27689848  -1.06269691
H     0.23623293   1.48070056   1.99722673
H    -0.46975157   2.71099467   0.93965140
H     1.25982986   2.32964440   0.83199822
H     2.20490025   0.65111996  -1.29367247
H     4.14843783  -0.61482876  -0.93285420
H     3.32925851  -1.53957811   0.36265618
H     2.91101037  -1.83862973  -1.34676035
22
Unnamed conformer 67
C    -2.45153259   1.54703690   0.93134851
C    -1.63184452   0.79096853  -0.07767111
O    -1.48028342   1.18202961  -1.23153987
N    -1.03129781  -0.34256788   0.41299725
C    -0.15235455  -1.17074255  -0.41658740
C    -0.15908726  -2.60578167   0.09626238
C     1.28415284  -0.59427602  -0.45278995
O     2.28176305  -1.25633605  -0.17754421
N     1.35242554   0.71312453  -0.89282116
C     2.61267168   1.36097087  -1.14134874
H    -2.70515072   0.91914978   1.79016631
H    -1.88367418   2.41468707   1.27682848
H    -3.38257260   1.87673584   0.46218560
H    -0.92224091  -0.42227940   1.41646590
H    -0.53037180  -1.16147269  -1.44649434
H     0.46518811  -3.25045510  -0.53145268
H     0.22471102  -2.66381943   1.12120561
H    -1.17573713  -3.01341748   0.09851242
H     0.50895380   1.10516908  -1.31321180
H     3.32797796   1.11613709  -0.35168766
H     3.00010223   1.01484805  -2.10313567
H     2.44820125   2.44029095  -1.17514805
22
Unnamed conformer 68
C     3.32268349   0.65595566  -0.83333135
C     2.11406000  -0.23276887  -0.71409014
O     1.82605974  -1.06408794  -1.56907109
N     1.37234646  -0.02228972   0.42736927
C     0.05504645  -0.63489646   0.55680289
C    -0.24558431  -0.96213495   2.01258349
C    -0.99311040   0.36136647   0.02310506
O    -0.79758899   1.57648423   0.01113127
N    -2.18478860  -0.21874479  -0.36570920
C    -3.22244922   0.58205181  -0.96518169
H     4.18229222   0.05217516  -1.13709475
H     3.12782049   1.42614729  -1.58401458
H     3.56270655   1.13721526   0.11898255
H     1.44728190   0.90481928   0.83308711
H     0.01542212  -1.55144829  -0.04226274
H    -1.22984859  -1.43064715   2.11674570
H     0.50494557  -1.64809422   2.41952004
H    -0.24161055  -0.05818115   2.63243370
H    -2.17386537  -1.20782683  -0.58293058
H    -4.14725970   0.00086731  -0.97651157
H    -3.36693559   1.50279225  -0.39352103
H    -2.92762367   0.83124568  -1.98804236
22
Unnamed conformer 69
C     3.34136110   0.97153521   0.36623704
C     2.22043771   0.12148289  -0.16833078
O     2.17084324  -0.23409635  -1.34141730
N     1.26888737  -0.20919438   0.77112296
C     0.01364697  -0.81791291   0.34550252
C    -0.51181253  -1.76905108   1.41133093
C    -1.01066887   0.30897245   0.10693920
O    -0.93183573   1.39868729   0.67367582
N    -2.05270531  -0.03601329  -0.73148005
C    -3.03644798   0.94631685  -1.11182193
H     3.21296693   1.99738955   0.01150992
H     4.29472292   0.57287359   0.00857626
H     3.35949122   0.97079073   1.45976133
H     1.18167893   0.43438736   1.55083387
H     0.16923364  -1.36453432  -0.59125516
H    -1.45002845  -2.23686443   1.09505428
H     0.21459732  -2.56271445   1.61592811
H    -0.70485766  -1.24316868   2.35342629
H    -1.90950142  -0.81987624  -1.35649133
H    -3.88503354   0.43041743  -1.56671567
H    -2.58722717   1.63202076  -1.83519929
H    -3.36774870   1.50855202  -0.23457250
22
Unnamed conformer 70
C     3.30080780   1.11015677  -0.14275259
C     2.00102734   0.63942781  -0.73756790
O     1.53928345   1.12220334  -1.76652271
N     1.38807522  -0.36647645  -0.02355503
C     0.01747142  -0.74872811  -0.34394177
C    -0.20364397  -2.23121443  -0.07917121
C    -0.93277651   0.08240633   0.54050731
O    -0.58321752   0.54388826   1.62665933
N    -2.21715831   0.19769025   0.04565969
C    -3.18769061   1.01875499   0.72485162
H     3.14692591   2.08476859   0.32750912
H     3.67771851   0.40736220   0.60567474
H     4.04745902   1.19624622  -0.93701446
H     1.61514434  -0.40239780   0.96482745
H    -0.18904482  -0.52810074  -1.39712335
H    -0.03230458  -2.47680363   0.97519633
H    -1.22852449  -2.52770574  -0.32583308
H     0.48234463  -2.83936537  -0.67834125
H    -2.35207024   0.03803032  -0.94524650
H    -2.94723920   2.06982222   0.54400817
H    -3.16479447   0.81990474   1.79973327
H    -4.17779293   0.79013023   0.32409470
22
Unnamed conformer 71
C    -2.59943424   1.65840356  -0.32478619
C    -1.74019660   0.50521960   0.11512945
O    -1.76976356   0.05830618   1.25824229
N    -0.88964334   0.02912767  -0.85245115
C     0.05730379  -1.05551583  -0.58140706
C     0.37526223  -1.79875806  -1.87326298
C     1.34520603  -0.51564500   0.08719231
O     2.47290309  -0.74235002  -0.34433305
N     1.11862571   0.18492201   1.25571811
C     2.20176487   0.62357136   2.09481737
H    -3.61442320   1.51474296   0.05575329
H    -2.18322039   2.58763948   0.07260828
H    -2.64944502   1.72519878  -1.41527681
H    -0.67932984   0.63526059  -1.63575716
H    -0.40436930  -1.75628688   0.12532430
H    -0.53833795  -2.19586071  -2.32866655
H     1.05544490  -2.63671260  -1.68743140
H     0.85164213  -1.13733941  -2.60590588
H     0.18131925   0.12790957   1.65581604
H     3.01766330   1.02098783   1.48527580
H     2.56307881  -0.23007533   2.67419386
H     1.82794933   1.39725425   2.76920715
22
Unnamed conformer 72
C     3.62449105   0.62213505   0.23425155
C     2.45068911  -0.30870580   0.37247855
O     2.58990136  -1.51215271   0.56663783
N     1.22851728   0.29856963   0.25416578
C    -0.02041700  -0.45065728   0.29778179
C    -0.43800267  -0.74026974   1.73464218
C    -1.09838957   0.37648793  -0.42912500
O    -0.90262254   1.53891189  -0.78430043
N    -2.29042911  -0.28637425  -0.63780336
C    -3.35881397   0.32990620  -1.38339787
H     4.14618524   0.40278322  -0.70097410
H     3.31188247   1.66999657   0.22754908
H     4.30119522   0.47124831   1.07979941
H     1.15924379   1.27275758  -0.02793054
H     0.12210899  -1.38964860  -0.25006476
H    -1.36321854  -1.32450362   1.77064728
H    -0.61193289   0.18958104   2.28819135
H     0.33595134  -1.30324421   2.26657657
H    -2.31146426  -1.29163777  -0.51872397
H    -4.28305193  -0.21667628  -1.18273927
H    -3.47263522   1.37676191  -1.08936557
H    -3.11918814   0.27473093  -2.44856993
22
Unnamed conformer 73
C    -2.50389742   0.44659093   1.77310767
C    -1.71056800   0.34852684   0.49927088
O    -1.76919191   1.20102319  -0.38227667
N    -0.88317584  -0.74540538   0.42820383
C     0.00216638  -0.96993840  -0.71738749
C     0.28456334  -2.45989413  -0.86799112
C     1.31475769  -0.16157734  -0.57304455
O     2.43022540  -0.66965398  -0.65611016
N     1.12179310   1.19678409  -0.41429001
C     2.22370320   2.12167220  -0.42252467
H    -3.52679401   0.75154182   1.53574860
H    -2.54560890  -0.51526404   2.29197966
H    -2.03939349   1.18769233   2.42857822
H    -0.63690625  -1.20798172   1.29455887
H    -0.49992338  -0.61167070  -1.62471404
H    -0.64739858  -3.02206912  -0.99109450
H     0.79930432  -2.85840994   0.01371437
H     0.91732581  -2.65379480  -1.74055270
H     0.18111218   1.55425299  -0.58519336
H     3.06257725   1.71832840   0.15086414
H     1.88977064   3.06442465   0.01660063
H     2.53555843   2.28482212  -1.45744761
22
Unnamed conformer 74
C    -2.49208752   1.42465518   1.17970828
C    -1.71096791   0.56943170   0.22049329
O    -1.79419501   0.69867934  -0.99757138
N    -0.86516642  -0.33061297   0.82120591
C     0.01157087  -1.20595982   0.03907727
C     0.31864386  -2.47110371   0.83123483
C     1.31113679  -0.47033565  -0.36977938
O     2.43445708  -0.91382157  -0.14443125
N     1.09589404   0.69674012  -1.07631270
C     2.18111224   1.42881600  -1.67301840
H    -2.03371452   2.41553406   1.23157661
H    -3.52272925   1.51154707   0.82491440
H    -2.51114916   0.98534514   2.18109577
H    -0.60139642  -0.16045999   1.78384294
H    -0.50656103  -1.48541520  -0.88673851
H     0.94526527  -3.15616861   0.25039017
H    -0.60450081  -2.99681095   1.09803788
H     0.84986073  -2.23904630   1.76136134
H     0.14724259   0.86652542  -1.41262379
H     2.47882084   0.92298989  -2.59521527
H     1.83531907   2.43972819  -1.90019481
H     3.03314466   1.46974266  -0.98925190
22
Unnamed conformer 75
C     2.64727138   1.47574296  -0.65345147
C     1.67788943   0.32672574  -0.61214277
O     1.42674087  -0.36090096  -1.59774240
N     1.06501014   0.14406835   0.60331206
C     0.05181109  -0.89425058   0.80812146
C     0.02520183  -1.30818833   2.27452679
C    -1.34170987  -0.41284677   0.33533362
O    -2.34270041  -0.44839778   1.04671542
N    -1.37617464  -0.00603942  -0.98409961
C    -2.61338926   0.32315409  -1.64031768
H     2.17498219   2.32544905  -1.15303074
H     3.54062734   1.17133418  -1.20563116
H     2.95306607   1.77587642   0.35280023
H     1.06055972   0.92207155   1.25129981
H     0.31589928  -1.76760263   0.19885566
H    -0.24818108  -0.46624274   2.92072105
H    -0.70209170  -2.10930129   2.44367539
H     1.00891864  -1.66756636   2.59530298
H    -0.56055387  -0.22424153  -1.55770442
H    -3.12338750  -0.60504990  -1.91101495
H    -2.38705093   0.89766279  -2.54133674
H    -3.25273872   0.90854315  -0.97419252
22
Unnamed conformer 76
C    -3.02427129   0.87048389   0.68471347
C    -2.12050973   0.11175295  -0.24925648
O    -2.49707999  -0.27506115  -1.34967523
N    -0.85399516  -0.10156752   0.23742214
C     0.11501325  -0.93471943  -0.47881637
C    -0.04633969  -2.40184759  -0.10280905
C     1.54715941  -0.43193612  -0.20091075
O     2.52966557  -1.16662841  -0.16704166
N     1.63831592   0.94690768  -0.11681172
C     2.91688773   1.60682764  -0.05924274
H    -2.47198586   1.29274875   1.52877660
H    -3.49422418   1.69233126   0.13750993
H    -3.79261783   0.19334653   1.06680528
H    -0.65675747   0.09895320   1.21039245
H    -0.05626635  -0.82212097  -1.55635377
H     0.14444320  -2.55747825   0.96506160
H     0.65437992  -3.03114643  -0.66150170
H    -1.06152376  -2.75371001  -0.31460889
H     0.82728021   1.47338380  -0.42247988
H     3.58524915   1.07857945   0.62596239
H     2.76362299   2.63230048   0.28426375
H     3.35355396   1.61252419  -1.06139937
22
Unnamed conformer 77
C    -3.37247299   0.80839196   0.23432292
C    -2.21824608  -0.15452964   0.16109117
O    -2.30646348  -1.24022497  -0.40327685
N    -1.07067486   0.29625671   0.77529056
C     0.18499377  -0.41823325   0.57499086
C     1.06510987  -0.31703317   1.81269666
C     0.91080056   0.21333587  -0.62930612
O     0.72072289   1.37997475  -0.97239217
N     1.83674806  -0.61374613  -1.23458244
C     2.52685806  -0.18510552  -2.42512745
H    -3.19807045   1.58817113   0.98108488
H    -4.27695994   0.26210861   0.51579978
H    -3.51167711   1.27516637  -0.74416448
H    -0.97583780   1.30455312   0.83929031
H    -0.02234039  -1.47157190   0.35588462
H     2.00648119  -0.85874204   1.67304985
H     1.31358627   0.72605678   2.03982106
H     0.55552707  -0.73579672   2.68699321
H     1.74248944  -1.61055503  -1.08267917
H     3.36686915  -0.86053025  -2.60221872
H     2.89022878   0.83887559  -2.30322982
H     1.83232800  -0.22682224  -3.26842530
22
Unnamed conformer 78
C     3.48210971  -1.04896115  -0.42139827
C     2.34684415  -0.09428643  -0.67269563
O     2.42040456   0.80456263  -1.50457440
N     1.23463156  -0.32162647   0.09397414
C     0.01455837   0.46123902  -0.05307661
C     0.11519389   1.78281678   0.69933683
C    -1.16042831  -0.38257326   0.47793715
O    -0.98579584  -1.44178164   1.08066806
N    -2.40969709   0.14846462   0.23051640
C    -3.60451599  -0.57307955   0.58959812
H     3.29914206  -1.67353829   0.45735516
H     3.60577158  -1.69474871  -1.29466389
H     4.39839685  -0.47703169  -0.25122121
H     1.17030253  -1.14917021   0.68087492
H    -0.14869047   0.64692084  -1.12126510
H    -0.79035344   2.38454651   0.57066845
H     0.96564273   2.37575125   0.34710623
H     0.25042989   1.61382693   1.77378746
H    -2.49108102   0.89668342  -0.44677414
H    -3.77209828  -1.36171425  -0.14866252
H    -4.44587985   0.12356874   0.58505670
H    -3.49488759  -1.01986910   1.58140284
22
Unnamed conformer 79
C     3.14579319   1.44881634   0.29962329
C     1.98605744   0.95868796  -0.52475994
O     1.58807442   1.56009057  -1.51720748
N     1.42130975  -0.20916424  -0.06156466
C     0.15047838  -0.66591710  -0.61263980
C     0.07931213  -2.18634369  -0.61266760
C    -0.98490088  -0.09460919   0.25944222
O    -0.81645882   0.20915125   1.44022137
N    -2.21042626  -0.02545290  -0.37388715
C    -3.34166756   0.56863624   0.29299602
H     3.51766176   0.67062317   0.97212163
H     2.82530683   2.30982943   0.89177103
H     3.96097242   1.74150941  -0.36788274
H     1.53907850  -0.38880432   0.93020731
H     0.03822319  -0.29215242  -1.63646392
H    -0.86890152  -2.53714031  -1.03333727
H     0.15970622  -2.58827864   0.40386959
H     0.89552017  -2.61340768  -1.20499669
H    -2.21370890  -0.02802613  -1.38659163
H    -4.24642190   0.31387169  -0.26350494
H    -3.20942526   1.65374673   0.31061223
H    -3.41558331   0.19433384   1.31762719
22
Unnamed conformer 80
C     3.25045152   1.25949317  -0.07638180
C     2.22997311   0.15597840  -0.00088469
O     2.31162271  -0.75624025   0.81533739
N     1.20971943   0.27043899  -0.91922566
C     0.03321784  -0.58376545  -0.80304340
C    -0.54488323  -0.89325456  -2.17664339
C    -1.01791730   0.15836119   0.04570198
O    -1.04836686   1.38611122   0.12685459
N    -1.95568919  -0.66422486   0.63877689
C    -2.94562271  -0.11456882   1.53056813
H     3.16290324   1.82422779  -1.00887039
H     3.10615776   1.93865433   0.76778215
H     4.25250465   0.82380688  -0.03374951
H     1.01577993   1.21254829  -1.24259738
H     0.30548883  -1.51790055  -0.29928032
H    -0.85387729   0.02249570  -2.69364122
H     0.19685287  -1.39661689  -2.80583886
H    -1.42378866  -1.54169945  -2.09806867
H    -1.71406345  -1.64090322   0.75411877
H    -3.71965126  -0.86713335   1.69701462
H    -3.38759821   0.78591633   1.09557472
H    -2.46321374   0.13827509   2.47852142
22
Unnamed conformer 81
C     3.42659081   1.22545767  -0.64152396
C     2.46262756   0.31636605   0.07101346
O     2.80536218  -0.39019525   1.01370476
N     1.18238678   0.35487727  -0.41476867
C     0.09798598  -0.40957196   0.18753740
C     0.10949201  -1.85488766  -0.29594099
C    -1.23124261   0.27903968  -0.17791147
O    -1.28985134   1.19546939  -0.99792703
N    -2.33807640  -0.21908152   0.47835455
C    -3.63508678   0.38480581   0.30444979
H     4.31323468   0.65253750  -0.92660544
H     2.98716636   1.65143633  -1.54774189
H     3.71215103   2.03979059   0.02947854
H     0.91407815   1.04228050  -1.11398709
H     0.21645014  -0.37540755   1.27701120
H    -0.68901942  -2.43848452   0.17357359
H     1.06235388  -2.34248024  -0.06527506
H    -0.03631871  -1.90733212  -1.38096588
H    -2.19433473  -0.81372202   1.28514995
H    -4.39492941  -0.31565560   0.65832125
H    -3.80619601   0.62051392  -0.74934363
H    -3.67482414   1.30424375   0.89445932
22
Unnamed conformer 82
C    -3.28463714   0.79451580  -0.86306018
C    -2.07156703  -0.09611990  -0.85599412
O    -1.72902949  -0.74327606  -1.84031369
N    -1.39189022  -0.11020579   0.34200771
C    -0.07460702  -0.73166770   0.41862051
C     0.15597348  -1.33608172   1.79640056
C     0.98559600   0.35336602   0.14534901
O     0.77428527   1.54669376   0.36029084
N     2.20337154  -0.13537513  -0.28587816
C     3.25912605   0.77078094  -0.66223661
H    -4.11930992   0.25871542  -1.32348329
H    -3.06241496   1.69723545  -1.43787133
H    -3.57938731   1.07955292   0.15084397
H    -1.50010352   0.71944788   0.91621705
H     0.00803973  -1.51330450  -0.34474754
H     1.13999402  -1.81245838   1.85884060
H     0.10804005  -0.57073811   2.57954455
H    -0.60481905  -2.09097982   2.02169229
H     2.21709294  -1.06295415  -0.69207554
H     3.36166149   1.56253839   0.08478576
H     4.19120311   0.20627026  -0.73798991
H     3.01338198   1.21404442  -1.63094247
22
Unnamed conformer 83
C     2.48351363   1.57198238   0.98685927
C     1.70495054   0.61031833   0.13205525
O     1.77454494   0.61110272  -1.09369720
N     0.87749990  -0.23180766   0.83381379
C     0.00533455  -1.19597116   0.15828325
C    -0.27657332  -2.37406064   1.08296194
C    -1.30815000  -0.52421257  -0.31147931
O    -2.42301353  -0.95557715  -0.02808219
N    -1.11587595   0.56425415  -1.13964321
C    -2.21682130   1.21533671  -1.79820398
H     2.01206585   2.55690640   0.93891814
H     2.51836519   1.24127643   2.02875734
H     3.50936110   1.63392386   0.61342601
H     0.62078238   0.03581554   1.77597665
H     0.51823907  -1.56515815  -0.73855631
H    -0.80186383  -2.05171204   1.98923961
H     0.65627304  -2.85688173   1.39349370
H    -0.89932311  -3.12457534   0.58470552
H    -0.17296682   0.70953122  -1.50253280
H    -1.88720480   2.20086120  -2.13468500
H    -3.06264712   1.31753414  -1.11314537
H    -2.51649040   0.61111337  -2.65846511
22
Unnamed conformer 84
C     2.68026518  -1.41201299  -0.65973158
C     1.42956127  -1.11298623   0.11999329
O     0.67885120  -1.99491028   0.52737141
N     1.17535790   0.22538945   0.29448467
C    -0.02814975   0.69870265   0.98308371
C     0.23307272   2.06861785   1.59748733
C    -1.24084418   0.73683495   0.02126460
O    -1.93713109   1.73541838  -0.14403966
N    -1.51599986  -0.47476999  -0.58196595
C    -2.69590376  -0.66890813  -1.38185832
H     2.40847955  -1.68362533  -1.68295961
H     3.35113091  -0.54859681  -0.68391607
H     3.20913785  -2.24256728  -0.18420627
H     1.63101347   0.87787855  -0.33148040
H    -0.27425442  -0.00772436   1.78563235
H     0.47078845   2.81130205   0.82736457
H     1.07855746   2.02845707   2.29267870
H    -0.64373409   2.42636306   2.14755779
H    -1.03272477  -1.29547832  -0.21487631
H    -2.86754678   0.19989294  -2.02286862
H    -3.55181585  -0.80397276  -0.71544321
H    -2.55811144  -1.56330448  -1.99357240
22
Unnamed conformer 85
C    -3.52191827  -0.33932748   1.06680647
C    -2.35404043   0.52032906   0.66626382
O    -2.39999411   1.74574005   0.70650028
N    -1.24593221  -0.17898146   0.26683247
C     0.00106803   0.48058372  -0.09792051
C    -0.04606356   0.99059154  -1.53336194
C     1.14773786  -0.53238989   0.08543699
O     0.93829111  -1.72344432   0.31614318
N     2.41401129   0.00164927  -0.03803117
C     3.58386316  -0.80690941   0.19614274
H    -3.67489845  -0.25395754   2.14580423
H    -4.41546393   0.00353570   0.53797125
H    -3.35626729  -1.39051143   0.81510447
H    -1.20818848  -1.19008680   0.36512110
H     0.16403127   1.31553333   0.59378480
H     0.88010205   1.50852903  -1.80282083
H    -0.18038729   0.16351572  -2.23989813
H    -0.87645559   1.68931552  -1.67873579
H     2.51836893   1.00842817  -0.01189207
H     3.71752965  -0.92468400   1.27471553
H     4.45018974  -0.29680354  -0.23106016
H     3.46441651  -1.79065524  -0.26569461
22
Unnamed conformer 86
C     2.61164992   0.87369406  -1.45134775
C     1.63971800   0.72532239  -0.31337500
O     1.32534000   1.66389728   0.41295554
N     1.10038220  -0.53146931  -0.18724995
C     0.09525918  -0.84082979   0.83287231
C     0.15491122  -2.32245213   1.18449019
C    -1.32141030  -0.43269973   0.35995018
O    -2.27774292  -1.20388664   0.35700855
N    -1.43317833   0.89837266   0.00875300
C    -2.70582905   1.49236625  -0.30305272
H     2.11507958   1.37962447  -2.28326670
H     2.97951858  -0.09866387  -1.79094443
H     3.46815070   1.46518138  -1.11638515
H     1.13975637  -1.14488415  -0.99184220
H     0.31681630  -0.25446541   1.73330588
H    -0.56558264  -2.56896541   1.97155429
H    -0.07387165  -2.94753843   0.31379852
H     1.15406759  -2.59845023   1.53841155
H    -0.65505040   1.51021330   0.25783141
H    -2.53097359   2.42898379  -0.83718535
H    -3.23678442   1.69217407   0.63134573
H    -3.30022635   0.81447547  -0.92137843
22
Unnamed conformer 87
C     2.30201405  -1.86502595   0.83118897
C     1.56547691  -0.86336596  -0.01501778
O     1.42640488  -0.99861588  -1.22749212
N     1.02931166   0.18867792   0.68839857
C     0.21046242   1.20272477   0.02319901
C     0.21121402   2.49033640   0.83679193
C    -1.22156537   0.65226635  -0.14553639
O    -2.14389978   0.93081508   0.61624647
N    -1.34635596  -0.23964459  -1.19349419
C    -2.56339876  -0.97596190  -1.40832929
H     2.55824453  -1.44926887   1.80977043
H     3.22977677  -2.14748926   0.32610271
H     1.67288067  -2.74784868   0.97068171
H     0.87372216   0.05844781   1.68094805
H     0.62614704   1.40547042  -0.97128828
H    -0.41435418   3.25269256   0.36061113
H    -0.17386790   2.32705899   1.84983315
H     1.22709717   2.88894120   0.93033704
H    -0.47779641  -0.61393658  -1.58025373
H    -2.54832128  -1.38551214  -2.42079659
H    -3.42973657  -0.32118663  -1.28199462
H    -2.61345604  -1.78957506  -0.67990616
22
Unnamed conformer 88
C     2.59317613  -1.48402711  -0.82822237
C     1.74131762  -0.51076913  -0.06091897
O     1.78792915  -0.41406754   1.16210547
N     0.87706064   0.22220711  -0.83688417
C    -0.06501624   1.17847531  -0.24980041
C    -0.40127800   2.26296315  -1.26627042
C    -1.34340528   0.46352927   0.25194826
O    -2.47712283   0.80155117  -0.07931488
N    -1.10028271  -0.54471029   1.16404979
C    -2.17136105  -1.21144608   1.85538635
H     2.62713876  -1.23191387  -1.89190385
H     2.18216590  -2.49001050  -0.71115579
H     3.61374130  -1.45313938  -0.43688578
H     0.65486537  -0.13175358  -1.75913004
H     0.40746183   1.64608462   0.62300945
H    -0.88881016   1.84047344  -2.15226863
H     0.50586051   2.77818414  -1.60003079
H    -1.07804896   3.00874718  -0.83599533
H    -0.15718383  -0.60274327   1.55014395
H    -2.99639778  -1.41808429   1.16851927
H    -1.78830698  -2.14601204   2.27129509
H    -2.52350340  -0.56353829   2.66232380
22
Unnamed conformer 89
C    -2.16818086   2.12722786   0.62188316
C    -1.48405111   1.03488032  -0.15296612
O    -1.27669941   1.11244211  -1.36056800
N    -1.07038486  -0.02940565   0.61024550
C    -0.33854516  -1.15758316   0.02865156
C    -0.57244322  -2.41080895   0.86358562
C     1.17147183  -0.83788964  -0.09309708
O     2.05156388  -1.56325475   0.36362308
N     1.44601757   0.30061083  -0.82523464
C     2.79257277   0.66591943  -1.17599129
H    -2.51536141   1.76854620   1.59499474
H    -1.46751472   2.95236215   0.77306633
H    -3.03647398   2.47753415   0.05707894
H    -0.97132785   0.11516192   1.60748417
H    -0.71446983  -1.33393975  -0.98686322
H    -0.19862594  -2.28329264   1.88592523
H    -0.06183299  -3.27536861   0.42636271
H    -1.64115894  -2.64227797   0.92696647
H     0.67432321   0.70857107  -1.35431658
H     3.46280464   0.50672533  -0.32709954
H     2.80259067   1.71846408  -1.46783761
H     3.11572572   0.04537569  -2.01589340
22
Unnamed conformer 90
C    -2.74283495  -0.02419177   1.44538014
C    -1.74909617   0.31756944   0.36958709
O    -1.60841703   1.45873928  -0.06082423
N    -0.98326278  -0.74117304  -0.05335478
C     0.07199136  -0.57788473  -1.05655013
C     0.29364196  -1.89392371  -1.79228751
C     1.38273796  -0.06980863  -0.40772010
O     2.46622103  -0.63058945  -0.55228534
N     1.24041166   1.11319275   0.29073200
C     2.37655417   1.81542798   0.82527543
H    -2.92591681  -1.10145064   1.49150987
H    -2.35776696   0.31565906   2.41019150
H    -3.69140085   0.47474474   1.22873232
H    -0.91530750  -1.54743509   0.55534910
H    -0.24628906   0.18268693  -1.78037301
H     1.05524465  -1.78508316  -2.57168743
H    -0.63282057  -2.23550739  -2.26635063
H     0.62655227  -2.68173454  -1.10693925
H     0.36418828   1.62187543   0.16685197
H     2.87004984   2.35293379   0.01134276
H     2.02454137   2.52478659   1.57761960
H     3.08097810   1.11116616   1.27580063
22
Unnamed conformer 91
C    -3.34967974  -0.29447539  -0.80115660
C    -2.04309807   0.44377401  -0.68867216
O    -1.62445992   1.17311448  -1.58188697
N    -1.37186343   0.22098178   0.49335006
C     0.00726506   0.67311640   0.63791237
C     0.29873745   1.05858936   2.08124723
C     0.93823385  -0.47915185   0.21178951
O     0.59135561  -1.65870062   0.26856433
N     2.20576475  -0.07878009  -0.16353694
C     3.15317289  -1.04070038  -0.66802577
H    -4.11571509   0.38910820  -1.17752583
H    -3.22903854  -1.13197321  -1.49306481
H    -3.67973565  -0.67663804   0.16896706
H    -1.57657152  -0.66004049   0.95340030
H     0.18199020   1.53495000  -0.01571676
H     1.33031513   1.40759704   2.19601175
H    -0.37215650   1.85821223   2.41281520
H     0.16026366   0.20622327   2.75627294
H     2.32696527   0.88701416  -0.44307063
H     4.14383371  -0.58062387  -0.67797165
H     3.16134578  -1.93134486  -0.03389555
H     2.86307510  -1.32025211  -1.68437084
22
Unnamed conformer 92
C    -3.47085969   0.23203785  -0.38895041
C    -2.17524491  -0.52713992  -0.28969297
O    -2.06495947  -1.54867223   0.38063309
N    -1.14112253   0.02991581  -1.00917045
C     0.21999116  -0.45624122  -0.81336443
C     1.02055475  -0.34900657  -2.10346561
C     0.88443905   0.40217646   0.28100009
O     0.52428044   1.55446438   0.52058529
N     1.95516126  -0.20363492   0.90897206
C     2.61634064   0.44845476   2.01124340
H    -3.45468570   0.94743506  -1.21603570
H    -3.64244146   0.77081207   0.54645087
H    -4.28700610  -0.47430905  -0.56425115
H    -1.21177747   1.02851007  -1.17521046
H     0.19333150  -1.50040712  -0.48242084
H     0.54891796  -0.93047956  -2.90276617
H     1.08908748   0.69064083  -2.44375979
H     2.04151741  -0.72051031  -1.96653517
H     2.01560401  -1.21332211   0.85932245
H     2.80562353   1.49811273   1.77077429
H     1.97294811   0.38743106   2.89305173
H     3.56030003  -0.06626809   2.20406345
22
Unnamed conformer 93
C    -3.30416211   0.94887347   0.58916191
C    -2.15116585   0.56318584  -0.29777942
O    -1.95096922   1.10119423  -1.38198215
N    -1.35301543  -0.43306143   0.21972912
C    -0.07356687  -0.73566282  -0.41174780
C     0.26272152  -2.21291565  -0.26547527
C     1.01434941   0.11332284   0.27503251
O     0.89671766   0.52168765   1.43014477
N     2.15015836   0.30863749  -0.48627789
C     3.21249574   1.15516714  -0.00439712
H    -3.09018025   1.91442346   1.05458509
H    -3.47507158   0.20447134   1.37196527
H    -4.21199668   1.02279376  -0.01591826
H    -1.35235782  -0.51193829   1.23142547
H    -0.11639405  -0.47135187  -1.47420845
H     1.21830912  -2.44960143  -0.74501872
H     0.34110681  -2.50041989   0.78930391
H    -0.51354348  -2.83519722  -0.72330882
H     2.06735683   0.18775131  -1.48833466
H     4.09703007   0.98941730  -0.62351353
H     2.89409761   2.19810606  -0.08290775
H     3.43808020   0.92111671   1.03952179
22
Unnamed conformer 94
C     2.37220795  -1.42016985   1.40306759
C     1.68089125  -0.58321787   0.36227896
O     1.85783803  -0.74769011  -0.84144502
N     0.80305852   0.34323207   0.86964124
C     0.00278351   1.20640610  -0.00277832
C    -0.34801941   2.49687203   0.72799692
C    -1.27070389   0.47482413  -0.49287599
O    -2.40199536   0.93760376  -0.36908398
N    -1.01680679  -0.71412924  -1.14824646
C    -2.06181057  -1.44996505  -1.80870359
H     1.89744671  -2.40375562   1.44546710
H     2.31857996  -0.95307317   2.39052764
H     3.42624823  -1.52909113   1.13327675
H     0.46207077   0.20336105   1.81270015
H     0.59594289   1.45358418  -0.89202309
H    -0.91745080   3.17259339   0.08108284
H    -0.95389989   2.29734484   1.61921833
H     0.55850330   3.01904097   1.05250375
H    -0.04709861  -0.90441639  -1.40384116
H    -2.96545740  -1.46163452  -1.19351461
H    -2.27902529  -0.96686504  -2.76493018
H    -1.71330312  -2.47085453  -1.98031887
22
Unnamed conformer 95
C     3.59022677   0.84565108  -0.35216420
C     2.48335577  -0.06908864   0.09676557
O     2.68848475  -1.03475992   0.82529155
N     1.24119946   0.27306924  -0.36853850
C     0.03852038  -0.45577298   0.01366343
C    -0.12057507  -1.72456770  -0.81616448
C    -1.16831989   0.48152885  -0.18528187
O    -1.07065653   1.55503605  -0.78037594
N    -2.35324303   0.02111200   0.34869818
C    -3.58372162   0.75195711   0.18085125
H     3.24833329   1.55227260  -1.11345430
H     4.39828525   0.24530486  -0.77908744
H     3.96148829   1.40671351   0.50941371
H     1.09783099   1.14663639  -0.86835235
H     0.11107513  -0.70699235   1.07840052
H    -0.22342701  -1.48677137  -1.88116277
H    -1.00908974  -2.28952686  -0.51677186
H     0.74793184  -2.38213479  -0.70574594
H    -2.39632741  -0.91389345   0.73376237
H    -4.29615457   0.41208402   0.93600011
H    -3.97726836   0.54667720  -0.81809386
H    -3.40794869   1.82546517   0.28993248
22
Unnamed conformer 96
C     3.32598437   1.00990722  -0.28349088
C     2.17242609   0.08088679  -0.55003345
O     2.00439355  -0.45819129  -1.63915582
N     1.33486388  -0.09870977   0.52867063
C     0.05437640  -0.77257806   0.34544163
C    -0.33280736  -1.54273962   1.59991406
C    -1.01350721   0.29758896   0.04482125
O    -0.89739283   1.46430399   0.41922272
N    -2.13216645  -0.18124734  -0.60872163
C    -3.17190589   0.72367971  -1.02994783
H     4.24357831   0.56279449  -0.67574327
H     3.13824274   1.96520002  -0.78034272
H     3.46179520   1.18438561   0.78760090
H     1.31840593   0.66111249   1.20109204
H     0.11981310  -1.46158048  -0.50397621
H    -1.28942198  -2.05878453   1.46681353
H     0.42819541  -2.29057955   1.84698197
H    -0.43445617  -0.87349853   2.46197352
H    -2.04039494  -1.05453819  -1.11323023
H    -3.41874323   1.41787385  -0.22211042
H    -2.81795015   1.28640366  -1.89788866
H    -4.05332879   0.13831059  -1.30126816
22
Unnamed conformer 97
C    -2.64463178  -1.51614068  -0.56577233
C    -1.70540336  -0.34248673  -0.52066061
O    -1.53816690   0.40645592  -1.47900779
N    -1.01866754  -0.20967432   0.66131698
C    -0.02200552   0.84568186   0.86009765
C     0.09038755   1.17757135   2.34320748
C     1.34951852   0.43376756   0.27151746
O     2.39399791   0.45968651   0.91781550
N     1.30755826   0.10261378  -1.06869210
C     2.50703265  -0.15185624  -1.82115288
H    -3.58024705  -1.20843431  -1.04073864
H    -2.18402789  -2.32191905  -1.14300970
H    -2.87525761  -1.88119352   0.43905681
H    -0.95084847  -1.02221144   1.26163412
H    -0.34877199   1.74337029   0.32058809
H    -0.87917502   1.48858286   2.74690151
H     0.80579630   1.98956168   2.51116983
H     0.42802955   0.30944034   2.92072310
H     0.45035757   0.32783096  -1.57500832
H     2.97329078   0.80500960  -2.07004698
H     3.20423910  -0.75401400  -1.23252723
H     2.23699494  -0.68164242  -2.73741195
22
Unnamed conformer 98
C     3.40679976   0.74134600   0.03334206
C     2.11720317   0.25265150   0.63578613
O     1.79776765   0.50640923   1.79276317
N     1.34109274  -0.49115982  -0.22547233
C    -0.03174468  -0.82109100   0.14029003
C    -0.43448447  -2.16887594  -0.44112031
C    -0.95563116   0.27985710  -0.41680317
O    -0.64902190   0.96161632  -1.39459579
N    -2.17431133   0.38024920   0.22549141
C    -3.10237762   1.42292610  -0.13353456
H     3.64143324   0.21367572  -0.89543980
H     4.22162554   0.56572754   0.74113249
H     3.32175819   1.81097863  -0.17485867
H     1.48018989  -0.30316999  -1.21292525
H    -0.12496148  -0.84834065   1.23165849
H    -1.46161284  -2.42761426  -0.16328605
H    -0.37892922  -2.16242325  -1.53575947
H     0.22832284  -2.96189374  -0.07884665
H    -2.24325520  -0.00513576   1.15946830
H    -3.19046885   1.49229668  -1.22112949
H    -4.07487946   1.18898363   0.30542930
H    -2.73451481   2.37298675   0.26310785
22
Unnamed conformer 99
C     3.27162969   0.94373517  -0.75549976
C     2.10522752  -0.00701643  -0.77545522
O     1.83365315  -0.68918119  -1.75827094
N     1.38144521  -0.03296093   0.39622501
C     0.09490185  -0.71890853   0.43624430
C    -0.15809469  -1.30813805   1.81666560
C    -1.00689660   0.30557905   0.10087745
O    -0.86394230   1.51193508   0.29874728
N    -2.18119660  -0.25237642  -0.36549986
C    -3.26564155   0.59177694  -0.79997223
H     3.51248079   1.26243683   0.26260852
H     4.14916148   0.44239066  -1.17304284
H     3.02686983   1.82301121  -1.35688098
H     1.42584395   0.81180344   0.95671913
H     0.08090687  -1.51799747  -0.31327447
H    -0.17869119  -0.52670663   2.58497815
H    -1.11874581  -1.83257007   1.85201795
H     0.63023597  -2.01907281   2.08599675
H    -2.13287059  -1.18695554  -0.75255764
H    -3.00521918   1.02858216  -1.76777586
H    -4.16472224  -0.02063155  -0.89890622
H    -3.43633556   1.39126508  -0.07394414
